LAMMPS (14 Aug 2011)
units		real
atom_style	hybrid angle dipole sphere 
read_data 	data.128dopc4232wat
  3 = max bonds/atom
  2 = max angles/atom
  orthogonal box = (-34.0234 -34.0234 -31.763) to (34.0234 34.0234 31.763)
  2 by 2 by 2 processor grid
  6152 atoms
  2176 bonds
  1664 angles
  4 = max # of 1-2 neighbors
  8 = max # of 1-3 neighbors
  25 = max # of 1-4 neighbors
  15 = max # of special neighbors
include 	forcefield.dopc
pair_style dipole/sf 12
bond_style hybrid harmonic dipole
angle_style cosine/squared

#    type  mass [grams/mol]
mass    1   40.000 # water
mass    2   90.000 # choline
mass    3   90.000 # phosphate
mass    4   62.000 # glycerol
mass    5   62.000 # ester
mass    6   42.000 # tail

# LJ coeffs: iType jType epsilon_ij [kcal/mol] sigma_ij [angstrom]
pair_coeff    1    1	  0.466  3.000 # water-water
pair_coeff    1    2	  0.585  4.100 # water-choline
pair_coeff    1    3	  1.054  4.100 # water-phosphate
pair_coeff    1    4	  0.574  3.800 # water-glycerol
pair_coeff    1    5	  0.765  3.800 # water-ester
pair_coeff    1    6	  0.447  3.750 # water-tail
pair_coeff    2    2	  1.434  5.200 # choline-choline
pair_coeff    2    3	  1.434  5.200 # choline-phosphate
pair_coeff    2    4	  1.171  4.900 # choline-glycerol
pair_coeff    2    5	  1.171  4.900 # choline-ester
pair_coeff    2    6	  1.095  4.850 # choline-tail
pair_coeff    3    3	  1.434  5.200 # phosphate-phosphate
pair_coeff    3    4	  1.171  4.900 # phosphate-glycerol
pair_coeff    3    5	  1.171  4.900 # phosphate-ester
pair_coeff    3    6	  1.095  4.850 # phosphate-tail
pair_coeff    4    4	  0.956  4.600 # glycerol-glycerol
pair_coeff    4    5	  0.956  4.600 # glycerol-ester
pair_coeff    4    6	  0.894  4.550 # glycerol-tail
pair_coeff    5    5	  0.956  4.600 # ester-ester 
pair_coeff    5    6	  0.894  4.550 # ester-tail
pair_coeff    6    6	  0.837  4.500 # tail-tail

# harmonic bond coeffs:  K [kcal/(mol*angstrom^2)] r0 [angstrom] 
bond_coeff    1  harmonic  1.506  4.680 # choline--phosphate
bond_coeff    2  harmonic  1.506  4.410 # phosphate--glycerol
bond_coeff    3  harmonic  1.506  4.140 # glycerol--ester
bond_coeff    4  harmonic  1.506  4.095 # ester--tail
bond_coeff    5  harmonic  1.506  4.050 # tail--tail
# dipole bond coeffs:  K [kcal/mol] gamma0 [degrees] 
bond_coeff    6  dipole    1.195  0.000 # glycerolDipole-phosphate, esterDipole-tail

# angle coeffs: K [kcal/mol] theta0 [degrees]
angle_coeff    1  3.5851  115.00 # choline-phosphate-glycerol
angle_coeff    2  3.5851  160.00 # phosphate-glycerol-ester
angle_coeff    3  3.5851  180.00 # glycerol-ester-tail, tail-tail-tail (saturated)
angle_coeff    4  3.5851  120.00 # tail-tail-tail (unsaturated)

special_bonds	lj/coul 0.0 1.0 1.0 
  4 = max # of 1-2 neighbors
  3 = max # of special neighbors
velocity	all create 0.0 87287 

neighbor	1 bin
neigh_modify	delay 2

group		lipids type 2 3 4 5 6
1920 atoms in group lipids
group		water type 1
4232 atoms in group water

fix		integrate all nve/sphere update dipole
fix 		tempLip lipids langevin 303.15 303.15 100.0 48279 omega yes
fix 		tempWat water langevin 303.15 303.15 100.0 48279 omega yes
fix             removeMomentum all momentum 1 linear 1 1 1

compute		erot all erotate/sphere
thermo_style	custom step etotal pe epair c_erot press temp
thermo		100

dump		trj all custom 100 dump.trj id type mol x y z mux muy muz
dump_modify	trj sort id

timestep	1
run		1000
Memory usage per processor = 5.11898 Mbytes
Step TotEng PotEng E_pair erot Press Temp 
       0   -41133.234   -41133.234   -43043.048            0   -740.68551            0 
     100   -37604.869   -42612.449   -44426.256    4886.8646   -1105.3097    273.11644 
     200    -36394.32   -41690.099   -43507.728    5337.0694   -298.10609    288.83502 
     300    -36035.95   -41440.307   -43300.169    5448.3699   -191.24776     294.7569 
     400    -35774.58   -41382.573   -43225.437     5500.992   -127.19965    305.86333 
     500   -35607.954   -41157.485   -43019.975    5493.0108   -62.569898     302.6748 
     600   -35735.383   -41170.988   -43048.849    5566.4686   -185.91801    296.46115 
     700   -35650.825   -41184.565   -43056.157    5651.5723    -37.49004    301.81352 
     800   -35553.971   -41098.169   -42953.679    5539.3091    11.013398    302.38393 
     900   -35552.441   -41056.598   -42902.158    5468.3721     1.190234     300.2001 
    1000    -35617.76   -41118.817   -42946.504    5541.6413   -29.681434    300.03097 
Loop time of 12.3285 on 8 procs for 1000 steps with 6152 atoms

Pair  time (%) = 7.83665 (63.5654)
Bond  time (%) = 0.0398872 (0.323537)
Neigh time (%) = 0.0793233 (0.643415)
Comm  time (%) = 3.85931 (31.3041)
Outpt time (%) = 0.175699 (1.42515)
Other time (%) = 0.337605 (2.73842)

Nlocal:    769 ave 801 max 736 min
Histogram: 1 0 2 0 1 1 0 1 1 1
Nghost:    3640.38 ave 3687 max 3607 min
Histogram: 2 1 0 1 0 1 1 1 0 1
Neighs:    83448.6 ave 103698 max 65288 min
Histogram: 3 1 0 0 0 0 0 0 3 1

Total # of neighbors = 667589
Ave neighs/atom = 108.516
Ave special neighs/atom = 0.582575
Neighbor list builds = 19
Dangerous builds = 0

timestep	2
run		1000
Memory usage per processor = 5.11898 Mbytes
Step TotEng PotEng E_pair erot Press Temp 
    1000    -35617.76   -41118.817   -42946.504    5541.6413   -29.681434    300.03097 
    1100    -35505.24   -40990.478   -42883.876    5433.5908    61.297955    299.16819 
    1200   -35481.246   -40976.336   -42849.098    5578.8216    75.884439    299.70556 
    1300   -35573.193   -41100.741   -42966.129    5594.3123     48.51114    301.47583 
    1400   -35441.802   -41030.992   -42933.526    5611.3819    80.488927    304.83785 
    1500   -35575.629   -41116.146   -42990.169    5632.5408    47.399201    302.18317 
    1600   -35666.776    -41156.83   -43034.446    5656.5771    42.220256     299.4309 
    1700   -35413.508   -41036.441   -42915.841    5527.7837    41.857584    306.67819 
    1800   -35502.534   -41068.748   -42951.658     5503.277    40.365226    303.58466 
    1900   -35438.636   -41039.105   -42930.622    5581.5835    62.137967    305.45298 
    2000   -35434.838   -41060.769   -42964.396    5555.8676    55.083897     306.8417 
Loop time of 12.6938 on 8 procs for 1000 steps with 6152 atoms

Pair  time (%) = 7.96979 (62.7847)
Bond  time (%) = 0.040281 (0.317327)
Neigh time (%) = 0.166289 (1.31)
Comm  time (%) = 3.97168 (31.2883)
Outpt time (%) = 0.198623 (1.56472)
Other time (%) = 0.347176 (2.73499)

Nlocal:    769 ave 801 max 738 min
Histogram: 1 0 0 3 1 0 1 0 1 1
Nghost:    3637.38 ave 3686 max 3588 min
Histogram: 1 0 1 2 0 0 2 0 1 1
Neighs:    83428.2 ave 103846 max 65604 min
Histogram: 3 1 0 0 0 0 0 0 3 1

Total # of neighbors = 667426
Ave neighs/atom = 108.489
Ave special neighs/atom = 0.582575
Neighbor list builds = 39
Dangerous builds = 0

timestep	5
run		1000
Memory usage per processor = 5.11898 Mbytes
Step TotEng PotEng E_pair erot Press Temp 
    2000   -35434.838   -41060.769   -42964.396    5555.8676    55.083897     306.8417 
    2100   -35542.621   -41107.087   -43019.459     5502.332   -55.218159    303.48933 
    2200   -35387.341   -40978.356   -42868.275    5585.9748    112.62657    304.93738 
    2300   -35469.936   -41089.829   -42940.455    5629.8978    43.948801    306.51239 
    2400   -35513.151   -41065.752   -42973.404    5555.1688   -48.004399    302.84223 
    2500   -35359.337   -40993.455   -42932.743    5498.5385    14.077605    307.28823 
    2600   -35538.488   -41008.424   -42952.937    5562.3275   -7.8728526    298.33363 
    2700   -35580.918   -41067.934   -43005.223    5567.1051    127.16919    299.26518 
    2800   -35440.167   -41071.548   -42983.857    5544.0817     94.10709    307.13895 
    2900   -35595.721   -41104.701   -43004.099    5643.7807   -62.283871    300.46307 
    3000    -35560.06   -41089.448   -42995.829     5432.126    66.793622    301.57619 
Loop time of 12.8211 on 8 procs for 1000 steps with 6152 atoms

Pair  time (%) = 7.44334 (58.0552)
Bond  time (%) = 0.0372187 (0.290292)
Neigh time (%) = 0.386488 (3.01446)
Comm  time (%) = 4.4637 (34.8151)
Outpt time (%) = 0.164048 (1.27951)
Other time (%) = 0.326352 (2.54542)

Nlocal:    769 ave 806 max 749 min
Histogram: 1 2 2 0 1 0 1 0 0 1
Nghost:    3645.5 ave 3669 max 3610 min
Histogram: 1 0 1 0 0 1 2 1 0 2
Neighs:    83297.9 ave 102865 max 65959 min
Histogram: 3 1 0 0 0 0 0 1 2 1

Total # of neighbors = 666383
Ave neighs/atom = 108.32
Ave special neighs/atom = 0.582575
Neighbor list builds = 99
Dangerous builds = 0

timestep	10
run		1000
Memory usage per processor = 5.11898 Mbytes
Step TotEng PotEng E_pair erot Press Temp 
    3000    -35560.06   -41089.448   -42995.829     5432.126    66.793622    301.57619 
    3100   -35377.837   -40933.112   -42906.228    5514.4713    51.803559    302.98808 
    3200   -35389.882   -40952.109   -42860.779    5608.9948   -38.763223    303.36727 
    3300   -35457.075    -40931.78   -42872.065     5507.002    14.488186     298.5937 
    3400   -35461.592   -40920.236   -42834.708    5572.3067    5.2485104    297.71775 
    3500    -35318.34   -40939.307   -42881.807    5495.6746    52.231374    306.57095 
    3600   -35283.715   -40922.914   -42864.834    5559.4292    21.276219    307.56534 
    3700   -35498.903   -41020.629   -42938.394    5564.5982    109.74388     301.1583 
    3800   -35386.142   -40938.633   -42866.113    5625.7765    16.301195    302.83624 
    3900   -35383.866   -40989.755   -42930.982    5552.2644    25.999795    305.74863 
    4000   -35266.009   -40855.595   -42834.751    5477.0995    55.878393    304.85937 
Loop time of 13.6062 on 8 procs for 1000 steps with 6152 atoms

Pair  time (%) = 7.47207 (54.9167)
Bond  time (%) = 0.0379935 (0.279237)
Neigh time (%) = 0.737428 (5.4198)
Comm  time (%) = 4.82489 (35.461)
Outpt time (%) = 0.199557 (1.46666)
Other time (%) = 0.334243 (2.45656)

Nlocal:    769 ave 808 max 743 min
Histogram: 2 1 0 2 0 1 1 0 0 1
Nghost:    3644 ave 3698 max 3585 min
Histogram: 1 0 1 1 1 0 2 1 0 1
Neighs:    83223.8 ave 104244 max 65873 min
Histogram: 3 1 0 0 0 0 0 1 2 1

Total # of neighbors = 665790
Ave neighs/atom = 108.223
Ave special neighs/atom = 0.582575
Neighbor list builds = 188
Dangerous builds = 0

fix		baro all press/berendsen aniso 1 1 500 couple xy modulus 22222
run		1000
Memory usage per processor = 5.11898 Mbytes
Step TotEng PotEng E_pair erot Press Temp 
    4000   -35266.009   -40855.595   -42834.751    5477.0995    55.878393    304.85937 
    4100   -35248.741   -40949.996   -42852.517    5598.3664   -1.2550012    310.94991 
    4200   -35413.717   -40949.901   -42895.131    5552.9347    24.250783    301.94681 
    4300   -35213.077   -40894.213   -42780.665    5636.8858    46.002715    309.85261 
    4400   -35294.714   -40819.392   -42795.908    5577.1972    32.048693    301.31929 
    4500   -35309.487   -40921.524   -42883.223    5461.8188    15.269845    306.08396 
    4600    -35470.78    -41010.15   -42975.292    5602.3264    21.573538     302.1206 
    4700   -35346.248   -40883.489   -42780.611    5575.3509    20.287354    302.00448 
    4800   -35305.157    -40829.44   -42738.655    5597.4155   -1.3165796    301.29776 
    4900    -35111.55   -40738.131   -42659.295    5551.3656    44.655239    306.87717 
    5000   -35283.527    -40851.18   -42755.561    5500.8886    20.776611    303.66315 
Loop time of 13.7598 on 8 procs for 1000 steps with 6152 atoms

Pair  time (%) = 7.49158 (54.4454)
Bond  time (%) = 0.0452488 (0.328848)
Neigh time (%) = 0.755232 (5.48869)
Comm  time (%) = 4.91943 (35.7522)
Outpt time (%) = 0.17632 (1.28141)
Other time (%) = 0.371996 (2.7035)

Nlocal:    769 ave 807 max 742 min
Histogram: 2 0 1 2 0 1 0 0 1 1
Nghost:    3641.25 ave 3667 max 3603 min
Histogram: 1 1 0 0 0 2 0 1 1 2
Neighs:    82516.5 ave 101910 max 64785 min
Histogram: 2 2 0 0 0 0 0 1 1 2

Total # of neighbors = 660132
Ave neighs/atom = 107.304
Ave special neighs/atom = 0.582575
Neighbor list builds = 192
Dangerous builds = 0
