LAMMPS (25 Sep 2011)
units		real
atom_style	hybrid angle dipole sphere 
read_data 	data.128dopc4232wat
  2 = max bonds/atom
  2 = max angles/atom
  orthogonal box = (-34.0234 -34.0234 -31.763) to (34.0234 34.0234 31.763)
  2 by 2 by 1 processor grid
  6152 atoms
  1792 bonds
  2048 angles
  3 = max # of 1-2 neighbors
  3 = max # of 1-3 neighbors
  6 = max # of 1-4 neighbors
  8 = max # of special neighbors
include 	forcefield.dopc
pair_style dipole/sf 12
bond_style harmonic 
angle_style hybrid cosine/squared dipole

#    type  mass [grams/mol]
mass    1   40.000 # water
mass    2   90.000 # choline
mass    3   90.000 # phosphate
mass    4   62.000 # glycerol
mass    5   62.000 # ester
mass    6   42.000 # tail

# LJ coeffs: iType jType epsilon_ij [kcal/mol] sigma_ij [angstrom]
pair_coeff    1    1	  0.466  3.000 # water-water
pair_coeff    1    2	  0.585  4.100 # water-choline
pair_coeff    1    3	  1.054  4.100 # water-phosphate
pair_coeff    1    4	  0.574  3.800 # water-glycerol
pair_coeff    1    5	  0.765  3.800 # water-ester
pair_coeff    1    6	  0.447  3.750 # water-tail
pair_coeff    2    2	  1.434  5.200 # choline-choline
pair_coeff    2    3	  1.434  5.200 # choline-phosphate
pair_coeff    2    4	  1.171  4.900 # choline-glycerol
pair_coeff    2    5	  1.171  4.900 # choline-ester
pair_coeff    2    6	  1.095  4.850 # choline-tail
pair_coeff    3    3	  1.434  5.200 # phosphate-phosphate
pair_coeff    3    4	  1.171  4.900 # phosphate-glycerol
pair_coeff    3    5	  1.171  4.900 # phosphate-ester
pair_coeff    3    6	  1.095  4.850 # phosphate-tail
pair_coeff    4    4	  0.956  4.600 # glycerol-glycerol
pair_coeff    4    5	  0.956  4.600 # glycerol-ester
pair_coeff    4    6	  0.894  4.550 # glycerol-tail
pair_coeff    5    5	  0.956  4.600 # ester-ester 
pair_coeff    5    6	  0.894  4.550 # ester-tail
pair_coeff    6    6	  0.837  4.500 # tail-tail

# harmonic bond coeffs:  K [kcal/(mol*angstrom^2)] r0 [angstrom] 
bond_coeff    1   1.506  4.680 # choline--phosphate
bond_coeff    2   1.506  4.410 # phosphate--glycerol
bond_coeff    3   1.506  4.140 # glycerol--ester
bond_coeff    4   1.506  4.095 # ester--tail
bond_coeff    5   1.506  4.050 # tail--tail

# angle coeffs: K [kcal/mol] theta0 [degrees]
angle_coeff 1 cosine/squared 3.5851 115.00 # choline-phosphate-glycerol
angle_coeff 2 cosine/squared 3.5851 160.00 # phosphate-glycerol-ester
angle_coeff 3 cosine/squared 3.5851 180.00 # gly-est-tail, tail-tail-tail (sat)
angle_coeff 4 cosine/squared 3.5851 120.00 # tail-tail-tail (unsat)
# dipole angle coeffs:  K [kcal/mol] gamma0 [degrees] 
angle_coeff 5  dipole    1.195  0.000 # glyDipole-phosphate, estDipole-tail


special_bonds	lj/coul 0.0 1.0 1.0 
  3 = max # of 1-2 neighbors
  3 = max # of special neighbors
velocity	all create 0.0 87287 

neighbor	2 bin
neigh_modify	delay 0

group		lipids type 2 3 4 5 6
1920 atoms in group lipids
group		water type 1
4232 atoms in group water

fix		integrate all nve/sphere update dipole
fix 		tempLip lipids langevin 303.15 303.15 100.0 48279 omega yes
fix 		tempWat water langevin 303.15 303.15 100.0 48279 omega yes
fix             removeMomentum all momentum 1 linear 1 1 1

thermo_style	custom step etotal pe epair press temp
thermo		10

dump		trj all custom 100 dump.trj id type mol x y z mux muy muz
dump_modify	trj sort id

timestep	1
run		100
Memory usage per processor = 6.11694 Mbytes
Step TotEng PotEng E_pair Press Temp 
       0   -41133.234   -41133.234   -43043.048   -740.68551            0 
      10   -40207.242   -41292.941   -43199.062   -730.39658    59.214639 
      20   -39481.036   -41665.122   -43562.718    -923.3572    119.12138 
      30   -38963.638   -42084.372   -43968.967   -1164.5145    170.20671 
      40   -38651.938   -42440.233   -44310.426   -1360.1147    206.61592 
      50   -38450.914   -42688.071   -44543.474   -1468.3142    231.09712 
      60   -38272.094       -42817    -44658.62   -1475.3774    247.88194 
      70   -38118.919   -42839.831   -44667.888   -1400.7556    257.48142 
      80   -38033.451   -42793.846   -44610.481   -1298.7102    259.63479 
      90   -37919.425   -42717.557   -44524.125    -1183.442    261.69301 
     100   -37796.043   -42637.535   -44435.778   -1084.9091    264.05789 
Loop time of 2.31827 on 4 procs for 100 steps with 6152 atoms

Pair  time (%) = 2.07496 (89.5046)
Bond  time (%) = 0.0137785 (0.594344)
Neigh time (%) = 0 (0)
Comm  time (%) = 0.134981 (5.82248)
Outpt time (%) = 0.0281932 (1.21613)
Other time (%) = 0.0663599 (2.86247)

Nlocal:    1538 ave 1544 max 1530 min
Histogram: 1 0 0 1 0 0 0 0 0 2
Nghost:    6779 ave 6791 max 6753 min
Histogram: 1 0 0 0 0 0 0 0 1 2
Neighs:    208245 ave 212882 max 205546 min
Histogram: 1 1 0 1 0 0 0 0 0 1

Total # of neighbors = 832979
Ave neighs/atom = 135.4
Ave special neighs/atom = 0.582575
Neighbor list builds = 0
Dangerous builds = 0

timestep	3
run		100
Memory usage per processor = 6.11694 Mbytes
Step TotEng PotEng E_pair Press Temp 
     100   -37796.043   -42637.535   -44435.778   -1084.9091    264.05789 
     110   -37462.717   -42421.105   -44203.181   -884.73306    270.43345 
     120   -37079.209    -42140.67   -43921.721   -642.99265    276.05515 
     130   -36732.168   -41928.565   -43724.408   -526.27137    283.41465 
     140   -36479.929    -41729.47   -43547.826   -410.89339    286.31314 
     150   -36163.671   -41545.303   -43383.334   -277.71722    293.51747 
     160   -35940.301   -41357.218   -43213.673    -147.3832    295.44193 
     170   -35908.112   -41258.168   -43131.789   -125.22709    291.79531 
     180   -35807.066   -41216.984    -43105.58   -130.73174    295.06022 
     190   -35828.972   -41209.593   -43106.541   -145.40098    293.46235 
     200   -35789.238   -41205.954    -43105.64   -152.79068    295.43096 
Loop time of 2.36851 on 4 procs for 100 steps with 6152 atoms

Pair  time (%) = 2.09178 (88.3159)
Bond  time (%) = 0.0128344 (0.541874)
Neigh time (%) = 0.0241031 (1.01765)
Comm  time (%) = 0.145066 (6.12476)
Outpt time (%) = 0.0286056 (1.20775)
Other time (%) = 0.06613 (2.79204)

Nlocal:    1538 ave 1561 max 1514 min
Histogram: 1 0 0 1 0 0 0 1 0 1
Nghost:    6772.5 ave 6800 max 6734 min
Histogram: 1 0 0 0 1 0 0 0 1 1
Neighs:    208331 ave 216459 max 203388 min
Histogram: 1 0 2 0 0 0 0 0 0 1

Total # of neighbors = 833325
Ave neighs/atom = 135.456
Ave special neighs/atom = 0.582575
Neighbor list builds = 2
Dangerous builds = 0

timestep	15
run		100
Memory usage per processor = 6.11694 Mbytes
Step TotEng PotEng E_pair Press Temp 
     200   -35789.238   -41205.954    -43105.64   -152.79068    295.43096 
     210   -35759.138   -41180.818     -43064.8   -61.147136    295.70169 
     220   -35484.576   -41029.828   -42903.641   -27.803069    302.44142 
     230   -35489.765   -41020.763   -42867.634    77.163361      301.664 
     240   -35314.033   -40885.965   -42775.088    119.36945    303.89657 
     250   -35295.723   -40910.817   -42778.371    101.85669    306.25065 
     260   -35418.982   -40929.086   -42756.178    146.10035    300.52445 
     270   -35188.547   -40847.436    -42714.18    134.28202    308.63925 
     280   -35213.249   -40775.202   -42641.812     218.5417     303.3523 
     290    -35361.69   -40892.014   -42743.443    111.96888    301.62725 
     300   -35384.578   -40915.104   -42762.185    123.36074    301.63827 
Loop time of 2.52866 on 4 procs for 100 steps with 6152 atoms

Pair  time (%) = 2.12211 (83.9222)
Bond  time (%) = 0.0119314 (0.471845)
Neigh time (%) = 0.147823 (5.84591)
Comm  time (%) = 0.153244 (6.0603)
Outpt time (%) = 0.0282218 (1.11608)
Other time (%) = 0.0653319 (2.58366)

Nlocal:    1538 ave 1549 max 1532 min
Histogram: 2 0 0 1 0 0 0 0 0 1
Nghost:    6744.25 ave 6767 max 6723 min
Histogram: 1 0 1 0 0 0 0 1 0 1
Neighs:    208192 ave 214641 max 203702 min
Histogram: 1 0 1 1 0 0 0 0 0 1

Total # of neighbors = 832767
Ave neighs/atom = 135.365
Ave special neighs/atom = 0.582575
Neighbor list builds = 12
Dangerous builds = 0

fix		baro all press/berendsen aniso 1 1 500 couple xy modulus 22222
run		100
Memory usage per processor = 6.11694 Mbytes
Step TotEng PotEng E_pair Press Temp 
     300   -35384.578   -40915.104   -42762.185    123.36074    301.63827 
     310   -35577.233   -41100.052   -42924.737   -5.5608283    301.21792 
     320   -35426.157    -40971.86   -42818.816    89.491399    302.46602 
     330   -35434.252   -40887.083   -42762.061    140.09906    297.40072 
     340    -35340.39   -40894.406   -42790.878    87.782978    302.91942 
     350   -35548.704   -40989.723   -42879.302   -75.564118    296.75651 
     360   -35482.838   -40999.434   -42866.234   -83.533972    300.87849 
     370   -35427.881   -40941.229   -42813.967    -14.69504    300.70137 
     380     -35212.2   -40800.949   -42709.486   -6.3475884    304.81381 
     390   -35277.382   -40878.309   -42771.299   -16.133255      305.478 
     400   -35435.455   -40933.063   -42806.038    1.5672825    299.84291 
Loop time of 2.53611 on 4 procs for 100 steps with 6152 atoms

Pair  time (%) = 2.12746 (83.8868)
Bond  time (%) = 0.0128109 (0.505139)
Neigh time (%) = 0.147905 (5.83197)
Comm  time (%) = 0.147072 (5.79912)
Outpt time (%) = 0.0287795 (1.13479)
Other time (%) = 0.07208 (2.84215)

Nlocal:    1538 ave 1543 max 1528 min
Histogram: 1 0 0 0 0 0 1 0 0 2
Nghost:    6770.5 ave 6794 max 6740 min
Histogram: 1 0 0 1 0 0 0 0 0 2
Neighs:    207652 ave 212862 max 203698 min
Histogram: 1 0 1 0 1 0 0 0 0 1

Total # of neighbors = 830610
Ave neighs/atom = 135.015
Ave special neighs/atom = 0.582575
Neighbor list builds = 12
Dangerous builds = 0
