LAMMPS (28 May 2012)
units		real
atom_style	hybrid angle dipole sphere 
read_data 	data.128lip4232wat
  2 = max bonds/atom
  2 = max angles/atom
  orthogonal box = (-34.0234 -34.0234 -31.763) to (34.0234 34.0234 31.763)
  3 by 2 by 2 MPI processor grid
  6152 atoms
  1792 bonds
  2048 angles
  3 = max # of 1-2 neighbors
  3 = max # of 1-3 neighbors
  6 = max # of 1-4 neighbors
  8 = max # of special neighbors
include 	forcefield.elba
pair_style dipole/sf 12.0
special_bonds lj/coul 0.0 1.0 1.0
  3 = max # of 1-2 neighbors
  3 = max # of special neighbors
bond_style harmonic
angle_style hybrid cosine/squared dipole

#   atomType  mass 
mass    1   40.000  # wat
mass    2   90.000  # chol
mass    3   90.000  # phos
mass    4   62.000  # glyc
mass    5   62.000  # est
mass    6   42.000  # tail

# Set diameters. These values are in turn used to obtain the moment of 
# inertia, used in the rotational integration. 
set type 1 diameter 5.0 # wat dipole
  4232 settings made for diameter
set type 4 diameter 12.7 # gly dipole
  128 settings made for diameter
set type 5 diameter 12.7 # est dipole
  256 settings made for diameter

# Lennard-Jones coefficients:
#           iType jType	  eps_ij sig_ij 
pair_coeff    1    1	  0.550  3.050 # wat-wat
pair_coeff    1    2	  0.725  4.225 # wat-chol
pair_coeff    1    3	  0.943  4.125 # wat-phos
pair_coeff    1    4	  0.651  3.825 # wat-gly
pair_coeff    1    5	  0.710  3.825 # wat-est
pair_coeff    1    6	  0.554  3.775 # wat-tail
pair_coeff    2    2	  1.434  5.400 # chol-chol
pair_coeff    2    3	  1.434  5.300 # chol-phos
pair_coeff    2    4	  1.171  5.000 # chol-gly
pair_coeff    2    5	  1.171  5.000 # chol-est
pair_coeff    2    6	  1.095  4.950 # chol-tail
pair_coeff    3    3	  1.434  5.200 # phos-phos
pair_coeff    3    4	  1.171  4.900 # phos-gly
pair_coeff    3    5	  1.171  4.900 # phos-est
pair_coeff    3    6	  1.095  4.850 # phos-tail
pair_coeff    4    4	  0.956  4.600 # gly-gly
pair_coeff    4    5	  0.956  4.600 # gly-est
pair_coeff    4    6	  0.894  4.550 # gly-tail
pair_coeff    5    5	  0.956  4.600 # est-est
pair_coeff    5    6	  0.894  4.550 # est-tail
pair_coeff    6    6	  0.837  4.500 # tail-tail

# harmonic bond coefficients:  
#         bondType   K     r0  
bond_coeff    1    1.506  4.770 # chol--phos
bond_coeff    2    1.506  4.410 # phos--gly
bond_coeff    3    1.506  4.140 # gly--est
bond_coeff    4    1.506  4.095 # est--tail
bond_coeff    5    1.506  4.050 # tail--tail

# angle coefficients:
#	  angleType	             K    theta0 
angle_coeff    1  cosine/squared   3.585  115.00 # chol-phos-gly
angle_coeff    2  cosine/squared   3.585   90.00 # phos-gly-est
angle_coeff    3  cosine/squared   3.585  180.00 # gly-est-tail, tail-tail
angle_coeff    4  cosine/squared   3.585  120.00 # tail-tail-tail (unsat)
# dipole angle coefficients:
#	  angleType	   K   gamma0  
angle_coeff    5  dipole 1.195  0.00 # glyDip-phos, estDip-tail

velocity	all create 0.0 87287 

variable	nLips equal 128 # total number of lipids
variable	nWats equal 4232 # total number of waters 
variable	watVol equal 30.0 # water molecular volume (~30 A^3)
variable	atmA__in__mN_m equal 0.01013 # 1 atm*A = 0.01013 mN/m 

variable	Neqnvt equal 5000
variable	Neqnpt equal 50000 
variable	Nprod equal 100000 
variable	Nthe equal 5000
variable	Ndump equal 10000
variable	Ne equal 2
variable	Nr equal 50000
variable	Nf equal ${Nprod}+${Neqnvt}+${Neqnpt}
variable	Nf equal 100000+${Neqnvt}+${Neqnpt}
variable	Nf equal 100000+5000+${Neqnpt}
variable	Nf equal 100000+5000+50000
variable	Nthe_e equal ${Nthe}/${Ne}
variable	Nthe_e equal 5000/${Ne}
variable	Nthe_e equal 5000/2
variable	Dz equal 1.0

group		lip type 2 3 4 5 6 
1920 atoms in group lip
group		head type 2 3 
256 atoms in group head
group		wat type 1
4232 atoms in group wat
group		chol type 2
128 atoms in group chol
group		phos type 3
128 atoms in group phos
group		gly type 4
128 atoms in group gly
group		est type 5
256 atoms in group est
group		tail type 6
1280 atoms in group tail

timestep	10
neighbor	1 bin
neigh_modify	delay 0

fix		integrate all nve/sphere update dipole
fix 		thermo all langevin 303 303 1000 9 omega yes zero yes
fix             removeMomentum all momentum 100 linear 1 1 1 # angular

dump	trj all custom ${Ndump} dump.*.trj id type mol x y z mux muy muz
dump	trj all custom 10000 dump.*.trj id type mol x y z mux muy muz
dump_modify	trj sort id pad 6

# compute and average area and volume per lipid:
variable	lipArea equal lx*ly/(${nLips}/2)
variable	lipArea equal lx*ly/(128/2)
fix		lipArea lip ave/time ${Ne} ${Nthe_e} ${Nthe} v_lipArea 
fix		lipArea lip ave/time 2 ${Nthe_e} ${Nthe} v_lipArea 
fix		lipArea lip ave/time 2 2500 ${Nthe} v_lipArea 
fix		lipArea lip ave/time 2 2500 5000 v_lipArea 
variable	lipVol equal (vol-(${nWats}*${watVol}))/${nLips}
variable	lipVol equal (vol-(4232*${watVol}))/${nLips}
variable	lipVol equal (vol-(4232*30))/${nLips}
variable	lipVol equal (vol-(4232*30))/128
fix		lipVol lip ave/time ${Ne} ${Nthe_e} ${Nthe} v_lipVol 
fix		lipVol lip ave/time 2 ${Nthe_e} ${Nthe} v_lipVol 
fix		lipVol lip ave/time 2 2500 ${Nthe} v_lipVol 
fix		lipVol lip ave/time 2 2500 5000 v_lipVol 

# compute and average pressure:
variable	P equal press
fix 		P all ave/time ${Ne} ${Nthe_e} ${Nthe} v_P
fix 		P all ave/time 2 ${Nthe_e} ${Nthe} v_P
fix 		P all ave/time 2 2500 ${Nthe} v_P
fix 		P all ave/time 2 2500 5000 v_P

# compute and average total (translational + rotational) temperature:
compute 	tempTot all temp/sphere dof all
fix 		tempTot all ave/time ${Ne} ${Nthe_e} ${Nthe} c_tempTot 
fix 		tempTot all ave/time 2 ${Nthe_e} ${Nthe} c_tempTot 
fix 		tempTot all ave/time 2 2500 ${Nthe} c_tempTot 
fix 		tempTot all ave/time 2 2500 5000 c_tempTot 
#compute_modify  tempTot extra 3 # default -> no effect

# compute and average rotational temperature:
compute 	tempRot all temp/sphere dof rotate
fix 		tempRot all ave/time ${Ne} ${Nthe_e} ${Nthe} c_tempRot 
fix 		tempRot all ave/time 2 ${Nthe_e} ${Nthe} c_tempRot 
fix 		tempRot all ave/time 2 2500 ${Nthe} c_tempRot 
fix 		tempRot all ave/time 2 2500 5000 c_tempRot 

thermo_style custom step press f_P temp f_tempTot f_tempRot f_lipArea f_lipVol
thermo		${Nthe}
thermo		5000

# compute and average surface tension (gamma) per monolayer:
variable	gamma equal (0.5*lz*(pzz-0.5*(pxx+pyy))/3)*${atmA__in__mN_m}
variable	gamma equal (0.5*lz*(pzz-0.5*(pxx+pyy))/3)*0.010130000000000000115
fix	gamma all ave/time ${Ne} ${Nthe_e} ${Nthe} v_gamma file gamma.dat
fix	gamma all ave/time 2 ${Nthe_e} ${Nthe} v_gamma file gamma.dat
fix	gamma all ave/time 2 2500 ${Nthe} v_gamma file gamma.dat
fix	gamma all ave/time 2 2500 5000 v_gamma file gamma.dat

# compute and average interface area (bilayer assumed parallel to xy plane):
variable	xyArea equal lx*ly
fix 		xyArea all ave/time 1 1 ${Ne} v_xyArea file xyArea.dat
fix 		xyArea all ave/time 1 1 2 v_xyArea file xyArea.dat

# compute and average box volume:
variable	boxVol equal vol
fix 		boxVol all ave/time 1 1 ${Ne} v_boxVol file boxVol.dat
fix 		boxVol all ave/time 1 1 2 v_boxVol file boxVol.dat

run		${Neqnvt}
run		5000
Memory usage per processor = 4.85426 Mbytes
Step Press P Temp tempTot tempRot lipArea lipVol 
       0    8307.8375            0            0            0            0            0            0 
    5000    79.708001    333.77258    302.80602    301.48355    300.68321    72.349569    1306.1622 
Loop time of 33.1971 on 12 procs for 5000 steps with 6152 atoms

Pair  time (%) = 21.6192 (65.1239)
Bond  time (%) = 0.10957 (0.330058)
Neigh time (%) = 2.27395 (6.84985)
Comm  time (%) = 8.07575 (24.3267)
Outpt time (%) = 6.88434e-05 (0.000207378)
Other time (%) = 1.11853 (3.36935)

Nlocal:    512.667 ave 530 max 491 min
Histogram: 1 2 1 1 0 1 1 0 2 3
Nghost:    3115.5 ave 3149 max 3090 min
Histogram: 2 0 1 2 2 2 2 0 0 1
Neighs:    56340.2 ave 68066 max 44577 min
Histogram: 3 1 2 0 0 0 0 1 2 3

Total # of neighbors = 676083
Ave neighs/atom = 109.896
Ave special neighs/atom = 0.582575
Neighbor list builds = 1015
Dangerous builds = 0

fix		baro all press/berendsen aniso 1 1 1000 couple xy modulus 21740

run		${Neqnpt}
run		50000
Memory usage per processor = 4.85426 Mbytes
Step Press P Temp tempTot tempRot lipArea lipVol 
    5000    79.708001    333.77258    302.80602    301.48355    300.68321    72.349569    1306.1622 
   10000    45.088045    5.2762898    308.16267    303.15774     302.9369    73.421288    1327.1797 
   15000    7.0051198  -0.35001589     299.9702    303.34384     303.0662    73.593878    1328.5826 
   20000   -69.166239   0.92924186    302.14769    302.82109    302.33701    73.598375    1325.8795 
   25000    29.824612    1.9248553    302.01499    302.97515    302.93957    73.343659    1327.2542 
   30000   -52.795108    1.6242239    307.53232    302.62469    302.23384    73.484759    1328.2855 
   35000   -4.7609309    2.1620313    309.24265    302.99559    302.55086    73.370808     1328.786 
   40000   -25.263577   0.32282354     305.2579    303.40404    302.94778    73.568224    1328.1506 
   45000    16.896781    0.7074927    303.40292    303.28811    303.27556    73.897955    1326.2737 
   50000     28.57781   0.80346757      298.809    303.37611    303.48477    73.983379    1328.0454 
   55000   -2.6730919   -1.0142265    305.05398    303.24989    302.77445    73.542069    1323.6838 
Loop time of 334.738 on 12 procs for 50000 steps with 6152 atoms

Pair  time (%) = 216.938 (64.8082)
Bond  time (%) = 1.20661 (0.360465)
Neigh time (%) = 22.7996 (6.81115)
Comm  time (%) = 81.1731 (24.2497)
Outpt time (%) = 0.09068 (0.0270898)
Other time (%) = 12.5305 (3.74336)

Nlocal:    512.667 ave 534 max 472 min
Histogram: 1 0 2 1 0 1 1 0 0 6
Nghost:    3095.25 ave 3126 max 3064 min
Histogram: 2 1 1 0 2 0 2 1 2 1
Neighs:    56229.2 ave 69873 max 40388 min
Histogram: 1 1 1 3 0 0 0 3 1 2

Total # of neighbors = 674750
Ave neighs/atom = 109.68
Ave special neighs/atom = 0.582575
Neighbor list builds = 10166
Dangerous builds = 0

fix 	numDensLip lip ave/spatial ${Ne} ${Nr} ${Nf} z center ${Dz} 		density/number units box file numDensLip.zProfile
fix 	numDensLip lip ave/spatial 2 ${Nr} ${Nf} z center ${Dz} 		density/number units box file numDensLip.zProfile
fix 	numDensLip lip ave/spatial 2 50000 ${Nf} z center ${Dz} 		density/number units box file numDensLip.zProfile
fix 	numDensLip lip ave/spatial 2 50000 155000 z center ${Dz} 		density/number units box file numDensLip.zProfile
fix 	numDensLip lip ave/spatial 2 50000 155000 z center 1 		density/number units box file numDensLip.zProfile
fix 	numDensWat wat ave/spatial ${Ne} ${Nr} ${Nf} z center ${Dz} 		density/number units box file numDensWat.zProfile
fix 	numDensWat wat ave/spatial 2 ${Nr} ${Nf} z center ${Dz} 		density/number units box file numDensWat.zProfile
fix 	numDensWat wat ave/spatial 2 50000 ${Nf} z center ${Dz} 		density/number units box file numDensWat.zProfile
fix 	numDensWat wat ave/spatial 2 50000 155000 z center ${Dz} 		density/number units box file numDensWat.zProfile
fix 	numDensWat wat ave/spatial 2 50000 155000 z center 1 		density/number units box file numDensWat.zProfile
fix 	numDensChol chol ave/spatial ${Ne} ${Nr} ${Nf} z center ${Dz} 		density/number units box file numDensChol.zProfile
fix 	numDensChol chol ave/spatial 2 ${Nr} ${Nf} z center ${Dz} 		density/number units box file numDensChol.zProfile
fix 	numDensChol chol ave/spatial 2 50000 ${Nf} z center ${Dz} 		density/number units box file numDensChol.zProfile
fix 	numDensChol chol ave/spatial 2 50000 155000 z center ${Dz} 		density/number units box file numDensChol.zProfile
fix 	numDensChol chol ave/spatial 2 50000 155000 z center 1 		density/number units box file numDensChol.zProfile
fix 	numDensPhos phos ave/spatial ${Ne} ${Nr} ${Nf} z center ${Dz} 		density/number units box file numDensPhos.zProfile
fix 	numDensPhos phos ave/spatial 2 ${Nr} ${Nf} z center ${Dz} 		density/number units box file numDensPhos.zProfile
fix 	numDensPhos phos ave/spatial 2 50000 ${Nf} z center ${Dz} 		density/number units box file numDensPhos.zProfile
fix 	numDensPhos phos ave/spatial 2 50000 155000 z center ${Dz} 		density/number units box file numDensPhos.zProfile
fix 	numDensPhos phos ave/spatial 2 50000 155000 z center 1 		density/number units box file numDensPhos.zProfile
fix 	numDensGly gly ave/spatial ${Ne} ${Nr} ${Nf} z center ${Dz} 		density/number units box file numDensGly.zProfile
fix 	numDensGly gly ave/spatial 2 ${Nr} ${Nf} z center ${Dz} 		density/number units box file numDensGly.zProfile
fix 	numDensGly gly ave/spatial 2 50000 ${Nf} z center ${Dz} 		density/number units box file numDensGly.zProfile
fix 	numDensGly gly ave/spatial 2 50000 155000 z center ${Dz} 		density/number units box file numDensGly.zProfile
fix 	numDensGly gly ave/spatial 2 50000 155000 z center 1 		density/number units box file numDensGly.zProfile
fix 	numDensEst est ave/spatial ${Ne} ${Nr} ${Nf} z center ${Dz} 		density/number units box file numDensEst.zProfile
fix 	numDensEst est ave/spatial 2 ${Nr} ${Nf} z center ${Dz} 		density/number units box file numDensEst.zProfile
fix 	numDensEst est ave/spatial 2 50000 ${Nf} z center ${Dz} 		density/number units box file numDensEst.zProfile
fix 	numDensEst est ave/spatial 2 50000 155000 z center ${Dz} 		density/number units box file numDensEst.zProfile
fix 	numDensEst est ave/spatial 2 50000 155000 z center 1 		density/number units box file numDensEst.zProfile
fix 	numDensTail tail ave/spatial ${Ne} ${Nr} ${Nf} z center ${Dz} 		density/number units box file numDensTail.zProfile 
fix 	numDensTail tail ave/spatial 2 ${Nr} ${Nf} z center ${Dz} 		density/number units box file numDensTail.zProfile 
fix 	numDensTail tail ave/spatial 2 50000 ${Nf} z center ${Dz} 		density/number units box file numDensTail.zProfile 
fix 	numDensTail tail ave/spatial 2 50000 155000 z center ${Dz} 		density/number units box file numDensTail.zProfile 
fix 	numDensTail tail ave/spatial 2 50000 155000 z center 1 		density/number units box file numDensTail.zProfile 

compute		stpa all stress/atom
fix	stress all ave/spatial ${Ne} ${Nr} ${Nf} z center ${Dz} 		c_stpa[1] c_stpa[2] c_stpa[3] c_stpa[4] c_stpa[5] c_stpa[6] 		units box file stress.zProfile
fix	stress all ave/spatial 2 ${Nr} ${Nf} z center ${Dz} 		c_stpa[1] c_stpa[2] c_stpa[3] c_stpa[4] c_stpa[5] c_stpa[6] 		units box file stress.zProfile
fix	stress all ave/spatial 2 50000 ${Nf} z center ${Dz} 		c_stpa[1] c_stpa[2] c_stpa[3] c_stpa[4] c_stpa[5] c_stpa[6] 		units box file stress.zProfile
fix	stress all ave/spatial 2 50000 155000 z center ${Dz} 		c_stpa[1] c_stpa[2] c_stpa[3] c_stpa[4] c_stpa[5] c_stpa[6] 		units box file stress.zProfile
fix	stress all ave/spatial 2 50000 155000 z center 1 		c_stpa[1] c_stpa[2] c_stpa[3] c_stpa[4] c_stpa[5] c_stpa[6] 		units box file stress.zProfile

compute		stke all stress/atom ke
fix	stressKinEn all ave/spatial ${Ne} ${Nr} ${Nf} z center ${Dz} 		c_stke[1] c_stke[2] c_stke[3] c_stke[4] c_stke[5] c_stke[6] 		units box file stressKinEn.zProfile
fix	stressKinEn all ave/spatial 2 ${Nr} ${Nf} z center ${Dz} 		c_stke[1] c_stke[2] c_stke[3] c_stke[4] c_stke[5] c_stke[6] 		units box file stressKinEn.zProfile
fix	stressKinEn all ave/spatial 2 50000 ${Nf} z center ${Dz} 		c_stke[1] c_stke[2] c_stke[3] c_stke[4] c_stke[5] c_stke[6] 		units box file stressKinEn.zProfile
fix	stressKinEn all ave/spatial 2 50000 155000 z center ${Dz} 		c_stke[1] c_stke[2] c_stke[3] c_stke[4] c_stke[5] c_stke[6] 		units box file stressKinEn.zProfile
fix	stressKinEn all ave/spatial 2 50000 155000 z center 1 		c_stke[1] c_stke[2] c_stke[3] c_stke[4] c_stke[5] c_stke[6] 		units box file stressKinEn.zProfile

compute		stnb all stress/atom pair
fix	stressNonBond all ave/spatial ${Ne} ${Nr} ${Nf} z center ${Dz} 		c_stnb[1] c_stnb[2] c_stnb[3] c_stnb[4] c_stnb[5] c_stnb[6] 		units box file stressNonBond.zProfile
fix	stressNonBond all ave/spatial 2 ${Nr} ${Nf} z center ${Dz} 		c_stnb[1] c_stnb[2] c_stnb[3] c_stnb[4] c_stnb[5] c_stnb[6] 		units box file stressNonBond.zProfile
fix	stressNonBond all ave/spatial 2 50000 ${Nf} z center ${Dz} 		c_stnb[1] c_stnb[2] c_stnb[3] c_stnb[4] c_stnb[5] c_stnb[6] 		units box file stressNonBond.zProfile
fix	stressNonBond all ave/spatial 2 50000 155000 z center ${Dz} 		c_stnb[1] c_stnb[2] c_stnb[3] c_stnb[4] c_stnb[5] c_stnb[6] 		units box file stressNonBond.zProfile
fix	stressNonBond all ave/spatial 2 50000 155000 z center 1 		c_stnb[1] c_stnb[2] c_stnb[3] c_stnb[4] c_stnb[5] c_stnb[6] 		units box file stressNonBond.zProfile

compute		stb all stress/atom bond
fix	stressBond all ave/spatial ${Ne} ${Nr} ${Nf} z center ${Dz} 		c_stb[1] c_stb[2] c_stb[3] c_stb[4] c_stb[5] c_stb[6] 		units box file stressBond.zProfile
fix	stressBond all ave/spatial 2 ${Nr} ${Nf} z center ${Dz} 		c_stb[1] c_stb[2] c_stb[3] c_stb[4] c_stb[5] c_stb[6] 		units box file stressBond.zProfile
fix	stressBond all ave/spatial 2 50000 ${Nf} z center ${Dz} 		c_stb[1] c_stb[2] c_stb[3] c_stb[4] c_stb[5] c_stb[6] 		units box file stressBond.zProfile
fix	stressBond all ave/spatial 2 50000 155000 z center ${Dz} 		c_stb[1] c_stb[2] c_stb[3] c_stb[4] c_stb[5] c_stb[6] 		units box file stressBond.zProfile
fix	stressBond all ave/spatial 2 50000 155000 z center 1 		c_stb[1] c_stb[2] c_stb[3] c_stb[4] c_stb[5] c_stb[6] 		units box file stressBond.zProfile

compute		sta all stress/atom angle
fix	stressAngle all ave/spatial ${Ne} ${Nr} ${Nf} z center ${Dz} 		c_sta[1] c_sta[2] c_sta[3] c_sta[4] c_sta[5] c_sta[6] 		units box file stressAngle.zProfile
fix	stressAngle all ave/spatial 2 ${Nr} ${Nf} z center ${Dz} 		c_sta[1] c_sta[2] c_sta[3] c_sta[4] c_sta[5] c_sta[6] 		units box file stressAngle.zProfile
fix	stressAngle all ave/spatial 2 50000 ${Nf} z center ${Dz} 		c_sta[1] c_sta[2] c_sta[3] c_sta[4] c_sta[5] c_sta[6] 		units box file stressAngle.zProfile
fix	stressAngle all ave/spatial 2 50000 155000 z center ${Dz} 		c_sta[1] c_sta[2] c_sta[3] c_sta[4] c_sta[5] c_sta[6] 		units box file stressAngle.zProfile
fix	stressAngle all ave/spatial 2 50000 155000 z center 1 		c_sta[1] c_sta[2] c_sta[3] c_sta[4] c_sta[5] c_sta[6] 		units box file stressAngle.zProfile

compute		stv all stress/atom virial # check this is redundant
fix	stressVir all ave/spatial ${Ne} ${Nr} ${Nf} z center ${Dz} 		c_stv[1] c_stv[2] c_stv[3] c_stv[4] c_stv[5] c_stv[6] 		units box file stressVir.zProfile
fix	stressVir all ave/spatial 2 ${Nr} ${Nf} z center ${Dz} 		c_stv[1] c_stv[2] c_stv[3] c_stv[4] c_stv[5] c_stv[6] 		units box file stressVir.zProfile
fix	stressVir all ave/spatial 2 50000 ${Nf} z center ${Dz} 		c_stv[1] c_stv[2] c_stv[3] c_stv[4] c_stv[5] c_stv[6] 		units box file stressVir.zProfile
fix	stressVir all ave/spatial 2 50000 155000 z center ${Dz} 		c_stv[1] c_stv[2] c_stv[3] c_stv[4] c_stv[5] c_stv[6] 		units box file stressVir.zProfile
fix	stressVir all ave/spatial 2 50000 155000 z center 1 		c_stv[1] c_stv[2] c_stv[3] c_stv[4] c_stv[5] c_stv[6] 		units box file stressVir.zProfile

compute		chgHead head property/atom q
fix 	qDensHead head ave/spatial ${Ne} ${Nr} ${Nf} z center ${Dz} 		c_chgHead units box file qDensHead.zProfile 
fix 	qDensHead head ave/spatial 2 ${Nr} ${Nf} z center ${Dz} 		c_chgHead units box file qDensHead.zProfile 
fix 	qDensHead head ave/spatial 2 50000 ${Nf} z center ${Dz} 		c_chgHead units box file qDensHead.zProfile 
fix 	qDensHead head ave/spatial 2 50000 155000 z center ${Dz} 		c_chgHead units box file qDensHead.zProfile 
fix 	qDensHead head ave/spatial 2 50000 155000 z center 1 		c_chgHead units box file qDensHead.zProfile 

compute		dipGly gly property/atom muz
fix 	muzGly gly ave/spatial ${Ne} ${Nr} ${Nf} z center ${Dz} 		c_dipGly units box file muzGly.zProfile 
fix 	muzGly gly ave/spatial 2 ${Nr} ${Nf} z center ${Dz} 		c_dipGly units box file muzGly.zProfile 
fix 	muzGly gly ave/spatial 2 50000 ${Nf} z center ${Dz} 		c_dipGly units box file muzGly.zProfile 
fix 	muzGly gly ave/spatial 2 50000 155000 z center ${Dz} 		c_dipGly units box file muzGly.zProfile 
fix 	muzGly gly ave/spatial 2 50000 155000 z center 1 		c_dipGly units box file muzGly.zProfile 

compute		dipEst est property/atom muz
fix 	muzEst est ave/spatial ${Ne} ${Nr} ${Nf} z center ${Dz} 		c_dipEst units box file muzEst.zProfile 
fix 	muzEst est ave/spatial 2 ${Nr} ${Nf} z center ${Dz} 		c_dipEst units box file muzEst.zProfile 
fix 	muzEst est ave/spatial 2 50000 ${Nf} z center ${Dz} 		c_dipEst units box file muzEst.zProfile 
fix 	muzEst est ave/spatial 2 50000 155000 z center ${Dz} 		c_dipEst units box file muzEst.zProfile 
fix 	muzEst est ave/spatial 2 50000 155000 z center 1 		c_dipEst units box file muzEst.zProfile 

compute		dipWat wat property/atom muz
fix 	muzWat wat ave/spatial ${Ne} ${Nr} ${Nf} z center ${Dz} 		c_dipWat units box file muzWat.zProfile 
fix 	muzWat wat ave/spatial 2 ${Nr} ${Nf} z center ${Dz} 		c_dipWat units box file muzWat.zProfile 
fix 	muzWat wat ave/spatial 2 50000 ${Nf} z center ${Dz} 		c_dipWat units box file muzWat.zProfile 
fix 	muzWat wat ave/spatial 2 50000 155000 z center ${Dz} 		c_dipWat units box file muzWat.zProfile 
fix 	muzWat wat ave/spatial 2 50000 155000 z center 1 		c_dipWat units box file muzWat.zProfile 

compute		msd gly msd com yes
fix 		msd gly ave/time 1 1 ${Ne} c_msd[4] file gly.msd
fix 		msd gly ave/time 1 1 2 c_msd[4] file gly.msd

run		${Nprod}
run		100000
Memory usage per processor = 7.57816 Mbytes
Step Press P Temp tempTot tempRot lipArea lipVol 
   55000   -2.6113562   -1.0142265    305.05398    303.24989    302.77445    73.542069    1323.6838 
   60000    65.546399    1.6677924     301.2085    303.23875    302.99106    73.074796    1323.8722 
   65000    52.649044    3.0323054    307.22047    303.46744       303.13    72.959637    1328.1029 
   70000    105.86103   -0.2558218    299.22626     302.8033    302.57857    72.628992     1325.719 
   75000    -15.10877    1.5056594    300.68272    302.84668    302.91242    72.596172    1323.5204 
   80000   -25.900765   0.47603986     305.0878    303.70123    303.24956    72.380566    1325.8256 
   85000   -108.17613    1.6377655     310.1449    303.18361     303.0029     72.20033    1325.8547 
   90000      6.05863 -0.065135169    304.00724    303.17169    302.55428    72.479772     1324.411 
   95000    63.119948     1.679539    306.53959    303.09817     302.5853    72.634012    1323.5935 
  100000   -8.4843989  -0.97069425    300.12061    303.08264    302.49566    72.589293    1324.0551 
  105000   -54.911008    3.0349995    305.28081    303.25632    303.20352    72.369366    1324.0273 
  110000    -0.271032    1.6956169    305.87857     303.1143    303.42713    72.379397    1325.2953 
  115000    132.57061    -2.010797    299.84349    302.73756     302.4872     72.29662    1325.8429 
  120000   -95.409315    3.4117072    306.73599    302.88247    302.98652    72.060028    1324.2984 
  125000   -117.11646  -0.53861773    301.46188    303.18537    302.69741    72.186574    1326.7533 
  130000    20.258474    3.7250052    307.52541    303.34496    302.80209    71.847005    1326.9299 
  135000   -89.725174  -0.59675618    304.72064    303.54707    303.16136      71.5246    1324.8663 
  140000   -91.142477   0.37735036    302.64818    302.43801    302.40701    71.902316    1323.1973 
  145000   -89.334957   0.79237803    302.12807    302.56937    302.16508    72.018477    1320.2973 
  150000   -36.190647   0.74842865    303.68639    302.99096    302.73882    72.038123    1323.4154 
  155000    64.390651    2.6704099    309.74244    303.14068    303.04623    71.744181    1325.8569 
Loop time of 973.497 on 12 procs for 100000 steps with 6152 atoms

Pair  time (%) = 500.011 (51.3624)
Bond  time (%) = 13.0499 (1.34052)
Neigh time (%) = 46.1512 (4.74076)
Comm  time (%) = 222.059 (22.8104)
Outpt time (%) = 0.17798 (0.0182826)
Other time (%) = 192.048 (19.7277)

Nlocal:    512.667 ave 541 max 480 min
Histogram: 2 0 1 0 1 4 1 0 0 3
Nghost:    3092.33 ave 3124 max 3073 min
Histogram: 3 0 3 1 1 1 1 1 0 1
Neighs:    56348.1 ave 69946 max 41346 min
Histogram: 1 0 4 1 0 0 1 2 1 2

Total # of neighbors = 676177
Ave neighs/atom = 109.912
Ave special neighs/atom = 0.582575
Neighbor list builds = 20344
Dangerous builds = 0


