LAMMPS (27 Oct 2011)
units		real
atom_style	hybrid angle dipole sphere 
read_data 	data.128lip4232wat
  2 = max bonds/atom
  2 = max angles/atom
  orthogonal box = (-34.0234 -34.0234 -31.763) to (34.0234 34.0234 31.763)
  2 by 2 by 2 processor grid
  6152 atoms
  1792 bonds
  2048 angles
  3 = max # of 1-2 neighbors
  3 = max # of 1-3 neighbors
  6 = max # of 1-4 neighbors
  8 = max # of special neighbors
include 	forcefield.elba
pair_style dipole/sf 12
special_bonds lj/coul 0.0 1.0 1.0 
  3 = max # of 1-2 neighbors
  3 = max # of special neighbors
bond_style harmonic 
angle_style hybrid cosine/squared dipole

#    type  mass [grams/mol]
mass    1   40.000 # water
mass    2   90.000 # choline
mass    3   90.000 # phosphate
mass    4   62.000 # glycerol
mass    5   62.000 # ester
mass    6   42.000 # tail

# LJ coeffs: iType jType epsilon_ij [kcal/mol] sigma_ij [angstrom]
pair_coeff    1    1	  0.466  3.000 # water-water
pair_coeff    1    2	  0.585  4.100 # water-choline
pair_coeff    1    3	  1.054  4.100 # water-phosphate
pair_coeff    1    4	  0.574  3.800 # water-glycerol
pair_coeff    1    5	  0.765  3.800 # water-ester
pair_coeff    1    6	  0.447  3.750 # water-tail
pair_coeff    2    2	  1.434  5.200 # choline-choline
pair_coeff    2    3	  1.434  5.200 # choline-phosphate
pair_coeff    2    4	  1.171  4.900 # choline-glycerol
pair_coeff    2    5	  1.171  4.900 # choline-ester
pair_coeff    2    6	  1.095  4.850 # choline-tail
pair_coeff    3    3	  1.434  5.200 # phosphate-phosphate
pair_coeff    3    4	  1.171  4.900 # phosphate-glycerol
pair_coeff    3    5	  1.171  4.900 # phosphate-ester
pair_coeff    3    6	  1.095  4.850 # phosphate-tail
pair_coeff    4    4	  0.956  4.600 # glycerol-glycerol
pair_coeff    4    5	  0.956  4.600 # glycerol-ester
pair_coeff    4    6	  0.894  4.550 # glycerol-tail
pair_coeff    5    5	  0.956  4.600 # ester-ester 
pair_coeff    5    6	  0.894  4.550 # ester-tail
pair_coeff    6    6	  0.837  4.500 # tail-tail

# harmonic bond coeffs:  K [kcal/(mol*angstrom^2)] r0 [angstrom] 
bond_coeff    1   1.506  4.680 # choline--phosphate
bond_coeff    2   1.506  4.410 # phosphate--glycerol
bond_coeff    3   1.506  4.140 # glycerol--ester
bond_coeff    4   1.506  4.095 # ester--tail
bond_coeff    5   1.506  4.050 # tail--tail

# angle coeffs: K [kcal/mol] theta0 [degrees]
angle_coeff 1 cosine/squared 3.5851 115.00 # choline-phosphate-glycerol
angle_coeff 2 cosine/squared 3.5851 160.00 # phosphate-glycerol-ester
angle_coeff 3 cosine/squared 3.5851 180.00 # gly-est-tail, tail-tail-tail (sat)
angle_coeff 4 cosine/squared 3.5851 120.00 # tail-tail-tail (unsat)
# dipole angle coeffs:  K [kcal/mol] gamma0 [degrees] 
angle_coeff 5  dipole    1.195  0.000 # glyDipole-phosphate, estDipole-tail


velocity	all create 0.0 87287 

group		lip type 2 3 4 5 6
1920 atoms in group lip
group		head type 2 3
256 atoms in group head
group		wat type 1
4232 atoms in group wat
group		chol type 2
128 atoms in group chol
group		phos type 3
128 atoms in group phos
group		gly type 4
128 atoms in group gly
group		est type 5
256 atoms in group est
group		tail type 6
1280 atoms in group tail

neighbor	2 bin
neigh_modify	delay 0

fix		integrate all nve/sphere update dipole
fix             removeMom all momentum 1 linear 1 1 1
fix 		thermoLip lip langevin 303.15 303.15 100.0 48279 omega yes
fix 		thermoWat wat langevin 303.15 303.15 100.0 48279 omega yes
fix		baro all press/berendsen aniso 1 1 500 couple xy modulus 21740

timestep	15	

variable	surfTens equal 0.5*lz*(pzz-0.5*(pxx+pyy))/3
variable	lipArea equal lx*ly/64
variable	lipVol equal (vol-(4232*30))/128
thermo_style    custom step temp press v_surfTens v_lipArea v_lipVol
thermo		100

dump		trj all custom 1000 dump.trj id type mol x y z mux muy muz
dump_modify	trj sort id

run		1000 # equilibration
Memory usage per processor = 5.10514 Mbytes
Step Temp Press surfTens lipArea lipVol 
       0            0   -740.68551   -669.30069    72.349569    1306.1622 
     100    310.94312   -3.6637696    1447.4581    72.540248     1310.706 
     200     306.7411    33.440936   -570.19595    72.435493    1309.3659 
     300    309.36259   -8.7372128    3072.4937    72.530643    1319.1204 
     400    304.97044   -58.805384    379.57979    72.466794    1320.3068 
     500    300.55027    -16.55607   -340.82367    72.591192    1323.4787 
     600    303.01421   -30.863361    1338.0116    72.385524    1320.9498 
     700    302.90556   -109.48318    791.92064    72.382255    1315.5637 
     800    305.27468    25.660962    1499.8451    72.335404    1316.4714 
     900    302.54782    37.145741   -1555.4262    72.132885    1313.4268 
    1000    302.28601    27.790564    8.3057583    72.022857     1310.097 
Loop time of 15.8433 on 8 procs for 1000 steps with 6152 atoms

Pair  time (%) = 10.487 (66.1919)
Bond  time (%) = 0.0625406 (0.394745)
Neigh time (%) = 0.820493 (5.1788)
Comm  time (%) = 4.02757 (25.4213)
Outpt time (%) = 0.0290217 (0.18318)
Other time (%) = 0.416691 (2.63008)

Nlocal:    769 ave 807 max 744 min
Histogram: 1 2 0 1 1 1 1 0 0 1
Nghost:    4076.25 ave 4122 max 4036 min
Histogram: 1 1 0 1 2 1 0 1 0 1
Neighs:    103430 ave 129539 max 82331 min
Histogram: 4 0 0 0 0 0 0 1 2 1

Total # of neighbors = 827436
Ave neighs/atom = 134.499
Ave special neighs/atom = 0.582575
Neighbor list builds = 129
Dangerous builds = 0

# average area & vol over time:
fix 		lipArea all ave/time 5 200 1000 v_lipArea file lip.area
fix 		lipVol all ave/time 5 200 1000 v_lipVol file lip.vol

# calc number density profiles:
fix 		numDensWat wat ave/spatial 5 2000 10000 z center 0.1 		density/number units box file numDensWat.zProfile
fix 		numDensLip lip ave/spatial 5 2000 10000 z center 0.1 		density/number units box file numDensLip.zProfile 
fix 		numDensChol chol ave/spatial 5 2000 10000 z center 0.1 		density/number units box file numDensChol.zProfile
fix 		numDensPhos phos ave/spatial 5 2000 10000 z center 0.1 		density/number units box file numDensPhos.zProfile
fix 		numDensGly gly ave/spatial 5 2000 10000 z center 0.1 		density/number units box file numDensGly.zProfile
fix 		numDensEst est ave/spatial 5 2000 10000 z center 0.1 		density/number units box file numDensEst.zProfile
fix 		numDensTail tail ave/spatial 5 2000 10000 z center 0.1 		density/number units box file numDensTail.zProfile 

# calc stress profiles:
compute		stpa all stress/atom
fix		stress all ave/spatial 5 2000 10000 z center 0.1 		c_stpa[1] c_stpa[2] c_stpa[3] units box file stress.zProfile

# calc charge density profile:
compute		chgHead head property/atom q
fix 		qDensHead head ave/spatial 5 2000 10000 z center 0.1 		c_chgHead units box file qDensHead.zProfile 

# calc dipole projection profiles:
compute		dipGly gly property/atom muz
fix 		muzGly gly ave/spatial 5 2000 10000 z center 0.1 		c_dipGly units box file muzGly.zProfile 
compute		dipEst est property/atom muz
fix 		muzEst est ave/spatial 5 2000 10000 z center 0.1 		c_dipEst units box file muzEst.zProfile 
compute		dipWat wat property/atom muz
fix 		muzWat wat ave/spatial 5 2000 10000 z center 0.1 		c_dipWat units box file muzWat.zProfile 

# calc mean squared displacement of representative lipid atom (gly):
compute		msd gly msd com yes
fix 		msd gly ave/time 1 1 200 c_msd[4] file gly.msd

# calc mean squared displacement of lipid molecules:
compute		msdm lip msd/molecule
fix 		msdm lip ave/time 1 1 10000 c_msdm[4] mode vector file lip.msd

run		20000 # production
Memory usage per processor = 8.20864 Mbytes
Step Temp Press surfTens lipArea lipVol 
    1000    302.28601    25.540967    9.9580753    72.022857     1310.097 
    1100    303.85351    -76.59818   -2200.1315    72.190248    1313.6351 
    1200    302.49376    99.329746   -516.68423    72.421655    1316.8337 
    1300    303.33087   -66.106649    265.63111    72.135107     1308.854 
    1400    303.96721    -14.12348   -759.90107    72.350026    1311.1112 
    1500    305.61641    25.086686   -1403.5994    72.353746    1313.2556 
    1600    304.66019   -82.631969   -63.653568    72.509025    1315.2722 
    1700    301.62168    2.6320335    1364.7577    72.388864     1313.595 
    1800    307.76737    93.833855   -829.77718    72.362212    1311.6725 
    1900    309.77043   -94.468538   -628.82581    72.546704    1316.8511 
    2000    307.75574   -35.380002   -683.01222    72.616106    1315.5515 
    2100    303.76428   -84.464034    751.13371    72.740819      1313.18 
    2200     306.1361    79.667286   -1129.7151    72.707675    1313.9681 
    2300    306.29508    35.800094   -671.25955    72.952127    1318.3078 
    2400    301.36038   -100.11317   -323.79277    73.014009    1316.9694 
    2500     301.0659   -41.276453   -996.20551    73.356226    1325.2268 
    2600    304.79141    39.166154   -1070.9284    73.207564    1319.5979 
    2700    304.07066   -79.318881   -1318.3127    73.139944    1317.5746 
    2800    300.90154   -14.053685   -741.56926    73.116294    1314.8864 
    2900    306.85309    5.1203741    1063.6567    73.093022    1318.6761 
    3000    306.32265   -24.513008    1238.9921    72.865408     1318.407 
    3100    304.50167   -10.149832   -763.28157    72.885911    1313.4756 
    3200    300.78276   -44.801509    502.76131    72.733463    1310.9148 
    3300    303.29076   -24.138474   -28.140823    72.701055    1308.7459 
    3400    307.14391    12.671621    228.59773    72.696396     1308.818 
    3500    305.71407    28.086185   -895.89369    72.825627     1308.582 
    3600    305.11456   -40.043528   -1606.7981    72.786376    1306.0997 
    3700    300.18946    71.171851    1513.4604    73.132015     1316.701 
    3800    307.96744   -10.226858    54.350327    73.017267    1315.7034 
    3900    299.65522   -60.331294    1096.6843    72.933789    1311.8117 
    4000     302.7897    43.725902    -576.9644    73.105526    1319.5403 
    4100    303.70699   -12.931665     -320.813    73.076343    1324.5964 
    4200    304.18946    -27.34172    167.95386    73.104939    1325.2665 
    4300    304.39254   -41.229782    2494.4208    72.957681    1323.2546 
    4400    306.75872    58.174837   -669.87397     72.69814    1318.6306 
    4500    302.78346   -12.479804   -1260.3348    72.730929    1321.1991 
    4600    298.74944    59.008055    352.36049    72.736136    1321.8043 
    4700    301.18042    39.241564    844.18872    72.613155    1319.7699 
    4800    303.14667    2.9339502   -2457.4835     72.59776     1322.234 
    4900    305.59559   -88.952407     122.2467    72.584808    1319.7148 
    5000    305.98788   -53.441652    1143.9081    72.609742    1319.5456 
    5100    307.25063    70.597745   -244.08238    72.356751    1315.3092 
    5200    300.61572    34.795165    1058.6654    72.450452    1312.5878 
    5300    301.78031   -77.541385     892.4021    72.512454    1315.4161 
    5400    303.46099   -23.405188    108.88922     72.50285    1313.0286 
    5500    302.46424    44.091908   -493.35772    72.438928    1314.6138 
    5600    305.91085   -56.197172    1421.7036    72.476245    1318.1159 
    5700    302.73449   -12.305395   -2330.7974    72.529714    1319.7173 
    5800    300.42879    44.769172    222.24486    72.567262    1314.9774 
    5900     302.1468   -5.7923816   -47.310573    72.603947    1311.5568 
    6000    302.92613    73.887402   -181.38289    72.888068    1316.3532 
    6100    295.80481    31.729091   -1223.3595    72.776329    1309.1496 
    6200    305.96368    53.269676    1178.2311    72.964762    1314.9641 
    6300    300.88407   -58.274564    902.77866    72.765723    1306.9303 
    6400    303.20755   -52.235599   -176.89886    72.890046    1313.2766 
    6500    303.75986    18.442084    1465.4815    72.673959    1310.0055 
    6600    305.34956    43.325509    1471.4779    72.718409    1312.2188 
    6700    302.25883     68.30353    -1764.805    72.825063    1313.0381 
    6800    303.58105   0.15354415   -320.09001    73.154811    1327.5649 
    6900     302.6659   -61.457443     1210.911    73.102684    1322.7866 
    7000    303.79349   -20.786325    555.27591    72.902387    1315.5773 
    7100    298.26785     29.59603   -626.74326    72.903853    1313.6995 
    7200    299.45785    79.811905   -488.27387    73.132037    1319.8737 
    7300    304.67145   -22.892637   -12.072056    73.142432    1320.6138 
    7400    310.35322   -20.473886    1104.1762    72.993548     1311.661 
    7500     301.7333   -109.32672   -1784.1278    72.929237    1310.3087 
    7600    303.68374    25.760652    301.29094    72.981206    1307.8468 
    7700    303.22816    69.543698    444.05573    73.113006    1312.2012 
    7800    301.71733   -3.6207621   -1649.7886    72.955326    1307.8737 
    7900    306.24137   -22.158867     -730.361    73.066768    1310.9283 
    8000    294.76295    39.750652    550.19949    72.948985    1304.8683 
    8100    300.80654    12.808819   -254.31727    73.103857     1310.854 
    8200    309.24437    9.4379039    575.86524    73.291443    1318.6784 
    8300    300.25741    10.765337    308.77393    73.267045    1315.4325 
    8400    305.83845    -3.761297     1454.437    73.115185    1312.5837 
    8500    301.21759    80.926946   -551.66409    72.902473    1310.8105 
    8600    302.09685    15.597779     1605.073    72.916706    1310.7008 
    8700    299.73374    8.8230698    1701.1286    73.001255     1314.112 
    8800    302.44027    17.850421   -778.65504     72.96711    1305.6824 
    8900    302.74714   -60.310198   -1204.4702    73.212638    1316.9975 
    9000    308.44345    48.950102    409.30837    73.242617    1315.0414 
    9100    305.52123   -72.772669    -689.2163    73.330703    1321.0415 
    9200    304.94719    39.091603    691.27802    73.071959    1314.0251 
    9300    304.66446     -106.601     667.7802    72.961292    1313.8101 
    9400    305.20092    54.926707   -1562.7853    73.121541    1316.3634 
    9500    301.16848    11.283807    1462.7747    73.254628    1320.8483 
    9600    302.34562    18.084561    116.49626    73.064733    1313.5374 
    9700    302.55738    41.393824    1184.0397    73.049918    1315.0238 
    9800    304.02218   -5.3321005    3169.7297    72.983088     1318.189 
    9900    301.52566    84.800417    1802.8004    72.912756    1311.9061 
   10000    302.25039   -40.539765   -478.22775    72.911154    1311.1845 
   10100    308.10378    30.090409   -1504.4831    72.952594    1309.8638 
   10200    305.76324    49.945686    485.70478    73.025003    1313.5886 
   10300    302.43092    51.653506   -1250.0942    73.093403     1315.007 
   10400    307.76804    33.225713    843.58129    73.170118    1318.2285 
   10500    306.88786   -76.667202   -687.72634    73.338157    1321.0496 
   10600    303.01585   -57.369214   -2978.0417    73.289299    1312.0642 
   10700    302.55381   -28.242612    503.72637    73.469281    1317.0112 
   10800      300.333   -69.613179   -671.50508    73.522588    1316.1315 
   10900    302.61641   -3.1881274   -374.76748    73.526471    1314.5483 
   11000     301.2317    40.876403    564.71638    73.598791     1318.275 
   11100    300.54795     69.58495    -1305.803    73.567238     1319.072 
   11200    306.96516   -93.050499    1908.6506     73.48505    1318.2813 
   11300    305.59492    64.707845   -1144.7886    73.322472    1312.3815 
   11400    304.25593    44.924795    2323.5332    73.334438    1316.3349 
   11500    303.02007    16.531323    1156.4331    73.276909    1320.1407 
   11600    303.18902   -14.351141    367.69247    73.075707    1314.8531 
   11700    306.55638    76.441704   -2110.7605    73.269761    1317.6684 
   11800    303.01055    63.702065   -520.54641     73.49801    1321.6158 
   11900    304.70114    69.348662   -602.99681    73.394828    1314.4711 
   12000    305.38158    23.291083     589.1642    73.358505    1314.1711 
   12100    303.36853   -12.344665   -283.61592    73.352581    1312.4043 
   12200    302.97441    6.1595287    2491.8676    73.280813    1315.2191 
   12300    305.37056    71.304554     452.9337    73.319692    1316.0959 
   12400    299.89473   -20.713427    2072.0225    73.179911    1313.8122 
   12500    294.82282   -78.770254   -564.93821    73.211073    1310.7172 
   12600    296.38179    27.655785   -1448.8299    73.340905    1311.7336 
   12700    302.27215   -105.50537   -153.43252    73.347596    1309.5741 
   12800    302.94103    7.9965207    46.526433     73.30292    1309.2592 
   12900    300.03766    58.150526   -508.15679    73.438049    1314.2089 
   13000    306.48166   -24.006433    1113.6612    73.425859    1310.5019 
   13100    300.42248   -55.042176    527.88409    73.476628    1313.8658 
   13200    298.37414    59.190158    339.49232     73.42158      1313.94 
   13300    301.89475    18.816842    652.81229     73.44249    1315.6321 
   13400    303.25048   -42.322056    717.44606    73.340948    1309.5117 
   13500    304.72208    54.723142   -880.24399    73.350661    1309.0537 
   13600    301.81517   -28.007018    559.47058    73.368198    1311.9199 
   13700     299.4739   -53.457087    461.38194    73.240022     1300.345 
   13800    305.43966    58.460046    739.53515    73.335263    1306.9287 
   13900    304.78901   -115.29666    1777.9276    73.215618    1304.6057 
   14000    300.93228   -14.440817    513.32255    73.127679    1305.7044 
   14100    307.04832    59.111986    318.94268    73.446633    1318.5319 
   14200    302.38601   -50.728973   -649.64096    73.380461    1313.4301 
   14300    308.80841   -18.557971   -262.13267    73.450774    1313.7156 
   14400    298.79791    58.502832    1210.4131    73.406366    1313.8831 
   14500    302.66992   -20.391965   -69.908505    73.435265    1315.7454 
   14600    305.42229    2.3057452    243.03988    73.285068    1317.2035 
   14700    307.41424     46.14569   -2680.8837    73.278453    1318.5862 
   14800    309.65756   0.42281692    2592.9829    73.034132    1315.1349 
   14900     304.2999    5.7207821    982.47296    72.949496    1315.9472 
   15000    303.37012    16.220209   -2516.5657    73.227727    1324.7863 
   15100     297.7052   -44.886247    157.51117    73.184659    1322.3442 
   15200    298.27591    1.8473443   -1720.0245    73.317699    1324.6731 
   15300     299.2672    97.418279    1958.7068    73.297417     1324.715 
   15400    303.50424     80.50731   -122.58847    73.242688    1327.6659 
   15500     305.3857   -5.1029385   -1379.6855    73.168145    1326.8904 
   15600    298.92362    15.480257   -277.05618    73.154384    1321.4031 
   15700    300.22924   -10.566359    26.021389    73.216128    1320.6086 
   15800    302.12577    -19.33836    -2187.098    73.333619    1316.4162 
   15900    307.14894   0.51931474   -785.49929    73.262292    1318.1729 
   16000    304.73574   -57.255076   -1715.5934    73.175519    1316.1541 
   16100    298.37344   -24.269684   -1345.8183    73.107008    1309.5443 
   16200    302.61574    -57.53431    940.75225    73.312044    1306.1939 
   16300    298.59884   -24.701378    1343.6339    73.294285    1312.9294 
   16400    299.18149   -35.499696   -2028.7546    73.153913    1311.7146 
   16500    306.27938   -68.982939    2139.6102    73.012874    1310.7283 
   16600    305.61896    35.565286    571.20014    73.131932    1313.6506 
   16700    305.77761   -9.8145445   -1485.4368    73.373977    1323.8815 
   16800    305.88971   -15.249015    771.23693     73.32203    1318.9941 
   16900    296.87848    12.426379   -403.29624    73.395355    1321.4712 
   17000    304.33951    43.607458    585.88069    73.163732     1312.749 
   17100    306.37455   -36.475187     188.1356      73.3516     1322.819 
   17200    300.69776   -69.853544    1147.3715    73.304783    1322.3389 
   17300    305.42918    10.899735    450.07544    73.382401    1322.4895 
   17400    307.15195    142.23646     2143.014    73.204814    1318.6936 
   17500     303.9744    59.196623    854.57366    73.101625    1317.4004 
   17600    300.55219   -5.5322111    183.49004    72.979136    1317.8009 
   17700    299.45373     17.81808    -1410.783    72.987687    1318.6547 
   17800    304.26904   -62.708857     264.6443    73.202616     1322.444 
   17900    304.06282   -99.735581   -348.83499    73.062634    1313.7587 
   18000    302.33443  -0.62871143   -304.94617     73.12209     1317.141 
   18100    300.32583   -50.432088   -784.26773    73.200733    1320.0065 
   18200    300.06112   -5.2011082    835.90796    73.299321    1322.3412 
   18300    307.84792     115.4654     1480.931    73.382868    1324.0644 
   18400    301.03995    29.255473   -1070.8655    73.244093    1318.2608 
   18500    299.70618   -44.897474    252.57029    73.311188    1314.5522 
   18600    302.34165   -7.7317281    335.97147    73.357806    1313.3394 
   18700    302.74019   -13.728057    303.44249    73.368682    1313.5305 
   18800    305.78574   -9.7063483    735.76082    73.374969    1318.5145 
   18900    300.85508   -136.27625   -442.06731    73.581131    1321.7749 
   19000      299.015      65.6121     539.7796    73.352946    1315.7239 
   19100     303.1172    5.7695577    1678.7911    73.308967    1317.7795 
   19200    303.93714   -16.204886   -489.58617    73.424053    1319.3375 
   19300    305.82372   -97.821534    1115.7417    73.415096    1320.2502 
   19400    303.33194   -21.195203    480.05719       73.248    1315.6132 
   19500    300.20883   -61.750165    271.77246    73.083196    1321.8752 
   19600    303.19538    30.635453   -300.15839     72.99534    1326.4696 
   19700     301.1359   -69.308234    1148.2023    72.922191    1322.4094 
   19800    303.71155   -8.3180686   -642.97196    72.882585    1323.2971 
   19900    307.73989   -17.293723    1149.9944    72.800843    1317.8845 
   20000    306.74036     40.28797   -743.19153    72.996887    1324.3445 
   20100    299.71979    38.855992   -783.27942    73.022379    1321.1316 
   20200    305.91293   -28.926302    1228.1517    73.126615    1328.0027 
   20300    296.90652   -56.764676    282.02887    73.266536     1330.265 
   20400    304.10183   -22.792972    -66.33226    73.363353    1331.6367 
   20500    305.18555   -7.4577865   -297.29503    73.128789     1328.652 
   20600    300.13328    -48.99087    -88.99073    72.839045    1322.8415 
   20700    300.16719  -0.23198593   -1287.7101    72.749584    1320.0994 
   20800    300.61267   -51.033467    1719.1689    72.798681     1321.568 
   20900    306.12579    56.753452    -2468.606    72.779373    1320.6661 
   21000    302.57915    7.0033126   -1553.1091    72.641701    1315.1499 
Loop time of 321.566 on 8 procs for 20000 steps with 6152 atoms

Pair  time (%) = 208.654 (64.8869)
Bond  time (%) = 2.08613 (0.648742)
Neigh time (%) = 15.9113 (4.94808)
Comm  time (%) = 82.1773 (25.5553)
Outpt time (%) = 0.579641 (0.180256)
Other time (%) = 12.1575 (3.78071)

Nlocal:    769 ave 818 max 750 min
Histogram: 3 2 1 0 0 0 1 0 0 1
Nghost:    4053 ave 4091 max 4003 min
Histogram: 2 0 0 0 0 0 3 1 1 1
Neighs:    103411 ave 131905 max 83547 min
Histogram: 4 0 0 0 0 0 1 1 1 1

Total # of neighbors = 827286
Ave neighs/atom = 134.474
Ave special neighs/atom = 0.582575
Neighbor list builds = 2526
Dangerous builds = 0

