LAMMPS (14 Aug 2011)
units		real
atom_style	hybrid angle dipole sphere 
read_data 	data.128dopc4232wat
  3 = max bonds/atom
  2 = max angles/atom
  orthogonal box = (-34.0863 -34.0863 -31.5696) to (34.0863 34.0863 31.5696)
  2 by 2 by 2 processor grid
  6152 atoms
  2176 bonds
  1664 angles
  4 = max # of 1-2 neighbors
  8 = max # of 1-3 neighbors
  27 = max # of 1-4 neighbors
  17 = max # of special neighbors
include 	forcefield.dopc
pair_style dipole/sf 12
bond_style hybrid harmonic dipole
angle_style cosine/squared

#    type  mass [grams/mol]
mass    1   40.000 # water
mass    2   90.000 # choline
mass    3   90.000 # phosphate
mass    4   62.000 # glycerol
mass    5   62.000 # ester
mass    6   42.000 # tail

# LJ coeffs: iType jType epsilon_ij [kcal/mol] sigma_ij [angstrom]
pair_coeff    1    1	  0.466  3.000 # water-water
pair_coeff    1    2	  0.585  4.100 # water-choline
pair_coeff    1    3	  1.054  4.100 # water-phosphate
pair_coeff    1    4	  0.574  3.800 # water-glycerol
pair_coeff    1    5	  0.765  3.800 # water-ester
pair_coeff    1    6	  0.447  3.750 # water-tail
pair_coeff    2    2	  1.434  5.200 # choline-choline
pair_coeff    2    3	  1.434  5.200 # choline-phosphate
pair_coeff    2    4	  1.171  4.900 # choline-glycerol
pair_coeff    2    5	  1.171  4.900 # choline-ester
pair_coeff    2    6	  1.095  4.850 # choline-tail
pair_coeff    3    3	  1.434  5.200 # phosphate-phosphate
pair_coeff    3    4	  1.171  4.900 # phosphate-glycerol
pair_coeff    3    5	  1.171  4.900 # phosphate-ester
pair_coeff    3    6	  1.095  4.850 # phosphate-tail
pair_coeff    4    4	  0.956  4.600 # glycerol-glycerol
pair_coeff    4    5	  0.956  4.600 # glycerol-ester
pair_coeff    4    6	  0.894  4.550 # glycerol-tail
pair_coeff    5    5	  0.956  4.600 # ester-ester 
pair_coeff    5    6	  0.894  4.550 # ester-tail
pair_coeff    6    6	  0.837  4.500 # tail-tail

# harmonic bond coeffs:  K [kcal/(mol*angstrom^2)] r0 [angstrom] 
bond_coeff    1  harmonic  1.506  4.680 # choline--phosphate
bond_coeff    2  harmonic  1.506  4.410 # phosphate--glycerol
bond_coeff    3  harmonic  1.506  4.140 # glycerol--ester
bond_coeff    4  harmonic  1.506  4.095 # ester--tail
bond_coeff    5  harmonic  1.506  4.050 # tail--tail
# dipole bond coeffs:  K [kcal/mol] gamma0 [degrees] 
bond_coeff    6  dipole    1.195  0.000 # glycerolDipole-phosphate, esterDipole-tail

# angle coeffs: K [kcal/mol] theta0 [degrees]
angle_coeff    1  3.5851  115.00 # choline-phosphate-glycerol
angle_coeff    2  3.5851  160.00 # phosphate-glycerol-ester
angle_coeff    3  3.5851  180.00 # glycerol-ester-tail, tail-tail-tail (saturated)
angle_coeff    4  3.5851  120.00 # tail-tail-tail (unsaturated)

special_bonds	lj/coul 0.0 1.0 1.0 
  4 = max # of 1-2 neighbors
  3 = max # of special neighbors
velocity	all create 0.0 87287 

neighbor	1 bin
neigh_modify	delay 2

group		lipids type 2 3 4 5 6
1920 atoms in group lipids
group		water type 1
4232 atoms in group water

fix		integrate all nve/sphere update dipole
fix 		tempLip lipids langevin 303.15 303.15 100.0 48279 omega yes
fix 		tempWat water langevin 303.15 303.15 100.0 48279 omega yes
fix             removeMomentum all momentum 1 linear 1 1 1

compute		erot all erotate/sphere
thermo_style	custom step etotal pe epair c_erot press temp
thermo		100
dump		trj all custom 1000 dump.trj id type mol x y z mux muy muz
dump_modify	trj sort id

timestep	1
run		1000
Memory usage per processor = 4.97523 Mbytes
Step TotEng PotEng E_pair erot Press Temp 
       0    76381.001    76381.001     48856.93            0    71954.821            0 
     100    27047.924    6796.0908   -16293.507    7497.0086    13079.262    1104.5473 
     200     3912.565   -7648.7028   -25257.606    7332.5811    6899.8269    630.55857 
     300   -6212.8671   -14717.209   -29087.487    6475.5055    4693.3053      463.832 
     400   -11712.824   -19029.875   -31275.858     6120.663    3934.3199    399.07638 
     500    -15203.06   -21802.663   -32628.119    5892.4691    3498.0815    359.94636 
     600   -17523.233   -23793.154   -33566.587    5819.0399    3134.1066    341.96531 
     700   -19233.368   -25364.494   -34222.213    5683.6124    3090.6903    334.39534 
     800   -20574.135   -26545.819   -34699.998    5604.3352     3043.011    325.69926 
     900   -21670.324   -27542.592   -35121.772    5512.0361    2921.5468    320.27708 
    1000   -22559.277   -28403.198   -35475.522    5707.8738    2884.7114    318.73098 
Loop time of 9.01236 on 8 procs for 1000 steps with 6152 atoms

Pair  time (%) = 6.92771 (76.8689)
Bond  time (%) = 0.0468323 (0.519645)
Neigh time (%) = 0.122353 (1.35761)
Comm  time (%) = 1.54585 (17.1525)
Outpt time (%) = 0.0280686 (0.311446)
Other time (%) = 0.341554 (3.78984)

Nlocal:    769 ave 781 max 762 min
Histogram: 3 0 0 1 1 2 0 0 0 1
Nghost:    3583.62 ave 3622 max 3557 min
Histogram: 1 1 1 2 1 0 0 0 1 1
Neighs:    73671.5 ave 76452 max 70573 min
Histogram: 1 0 1 1 1 0 2 0 1 1

Total # of neighbors = 589372
Ave neighs/atom = 95.8017
Ave special neighs/atom = 0.582575
Neighbor list builds = 28
Dangerous builds = 0

timestep	3
run		1000
Memory usage per processor = 4.97714 Mbytes
Step TotEng PotEng E_pair erot Press Temp 
    1000   -22559.277   -28403.198   -35475.522    5707.8738    2884.7114    318.73098 
    1100   -24589.924   -30295.079   -36341.847    5659.6679    2477.5849    311.16264 
    1200    -25667.74   -31275.156   -36693.125    5539.0791    2372.0236    305.83186 
    1300   -26588.544   -32287.698   -37169.209    5588.8484    2108.9497    310.83533 
    1400   -27428.402   -33000.778   -37481.816    5548.4041    1919.5993     303.9208 
    1500   -28019.616   -33656.969   -37790.426    5569.0103    1940.8374    307.46465 
    1600   -28593.886   -34192.756   -38145.085     5550.707    1627.2039    305.36577 
    1700   -28847.422   -34462.761   -38206.913    5515.1311    1576.9487      306.264 
    1800   -29066.171   -34740.503   -38320.056    5576.6545     1405.949    309.48149 
    1900   -29411.653   -35009.584   -38437.304    5563.6044    1434.8352    305.31454 
    2000   -29854.053   -35353.664   -38635.126    5569.1829    1426.4113    299.95211 
Loop time of 9.30801 on 8 procs for 1000 steps with 6152 atoms

Pair  time (%) = 6.94578 (74.6216)
Bond  time (%) = 0.0467449 (0.502201)
Neigh time (%) = 0.26346 (2.83046)
Comm  time (%) = 1.66978 (17.9392)
Outpt time (%) = 0.0285121 (0.306318)
Other time (%) = 0.353724 (3.80021)

Nlocal:    769 ave 782 max 742 min
Histogram: 1 0 0 0 1 1 0 1 1 3
Nghost:    3589.75 ave 3624 max 3549 min
Histogram: 1 0 0 1 2 0 2 0 1 1
Neighs:    73731 ave 76765 max 68220 min
Histogram: 1 0 0 1 1 0 1 0 2 2

Total # of neighbors = 589848
Ave neighs/atom = 95.8791
Ave special neighs/atom = 0.582575
Neighbor list builds = 60
Dangerous builds = 0

timestep	15
run		1000
Memory usage per processor = 4.97714 Mbytes
Step TotEng PotEng E_pair erot Press Temp 
    2000   -29854.053   -35353.664   -38635.126    5569.1829    1426.4113    299.95211 
    2100   -30482.422   -36136.114   -39133.707     5522.573    1017.2806    308.35579 
    2200   -30899.501   -36374.189   -39155.314    5561.8098    1064.6647    298.59283 
    2300   -31052.887   -36609.691   -39261.831    5572.8771    1014.0755    303.07148 
    2400   -31404.798   -36923.052   -39503.869    5578.6978    840.37105    300.96889 
    2500   -31471.862   -37062.167   -39586.415    5555.3098    803.18323    304.89862 
    2600   -31573.933   -37148.277    -39655.72    5600.8485    763.51608    304.02814 
    2700   -31809.164   -37399.523   -39774.372     5546.688    783.18797    304.90158 
    2800   -31914.237   -37458.448   -39811.107    5486.4761    624.68813    302.38463 
    2900   -31888.809   -37444.686   -39792.947    5482.6479    554.62493    303.02089 
    3000   -31809.175   -37392.674   -39717.243    5674.8922    668.12534    304.52739 
Loop time of 10.8981 on 8 procs for 1000 steps with 6152 atoms

Pair  time (%) = 7.10946 (65.2356)
Bond  time (%) = 0.0476796 (0.437503)
Neigh time (%) = 1.19037 (10.9227)
Comm  time (%) = 2.16565 (19.8718)
Outpt time (%) = 0.0283723 (0.260341)
Other time (%) = 0.356602 (3.27214)

Nlocal:    769 ave 795 max 741 min
Histogram: 1 0 1 2 0 0 2 0 1 1
Nghost:    3568.5 ave 3608 max 3507 min
Histogram: 1 0 0 0 2 1 0 2 1 1
Neighs:    73679.1 ave 77628 max 67627 min
Histogram: 1 0 0 2 0 0 1 1 1 2

Total # of neighbors = 589433
Ave neighs/atom = 95.8116
Ave special neighs/atom = 0.582575
Neighbor list builds = 264
Dangerous builds = 0

fix		baro all press/berendsen aniso 1 1 500 modulus 22222
run		5000
Memory usage per processor = 4.97714 Mbytes
Step TotEng PotEng E_pair erot Press Temp 
    3000   -31809.175   -37392.674   -39717.243    5674.8922    668.12534    304.52739 
    3100   -31772.715   -37347.568   -39538.976    5538.2127   -52.924394    304.05591 
    3200   -31682.211   -37154.287   -39347.341    5615.1658    117.05779    298.45038 
    3300   -31659.055   -37174.171   -39337.556    5556.1642   -63.079551    300.79773 
    3400   -31565.564   -37159.137   -39313.793    5492.6534   -58.976364    305.07687 
    3500   -31631.863   -37177.369   -39371.924    5581.2518    60.269678    302.45526 
    3600   -31766.046   -37312.161   -39453.671    5532.2171   -85.304497    302.48845 
    3700   -31682.691   -37252.145    -39451.49    5506.5168   -58.625388    303.76145 
    3800   -31668.968   -37296.172   -39450.741    5575.1936    28.705025    306.91111 
    3900   -31787.926   -37336.358   -39474.224    5577.3483   -14.433019    302.61482 
    4000   -31737.014   -37299.992   -39388.073    5563.5154    55.939412    303.40818 
    4100   -31736.229   -37270.881   -39421.383    5512.8025     10.81017    301.86329 
    4200   -31654.519   -37311.125   -39459.711    5669.6843    46.190981    308.51473 
    4300   -31760.862   -37325.203   -39436.685    5579.3462    31.250835    303.48258 
    4400   -31758.253   -37260.601   -39358.165    5601.1544   -65.453885    300.10142 
    4500   -31774.841   -37374.809   -39502.427    5573.4612    40.668086    305.42565 
    4600   -31922.647    -37437.67   -39462.573    5582.3618   -34.544615     300.7927 
    4700   -31968.063   -37460.626   -39509.846    5522.2476    4.4220068    299.56773 
    4800   -31779.046    -37411.46   -39480.633    5513.9996    117.20711    307.19528 
    4900   -31935.303   -37471.447   -39562.882    5574.8333   -22.610397    301.94468 
    5000    -32083.81   -37646.084   -39740.508    5469.4973   -59.520921    303.36983 
    5100   -32112.238   -37567.605   -39713.725    5572.0327    51.897213    297.53904 
    5200    -31939.85   -37594.254   -39674.018    5540.2074   -66.465245     308.3946 
    5300   -32160.267   -37653.659   -39729.198    5503.5269    -12.58478    299.61291 
    5400   -32125.772   -37556.946   -39639.351    5563.9909    -78.00077    296.21952 
    5500   -32125.626     -37665.3   -39734.873    5602.2492    88.179185    302.13716 
    5600   -32089.738   -37716.858   -39804.462    5614.0431   -39.973954    306.90658 
    5700   -31972.193   -37539.318   -39557.198     5573.673   -4.5393198    303.63442 
    5800    -32029.78   -37627.497   -39650.741    5537.8958    -22.29496    305.30288 
    5900   -31959.256   -37508.001   -39551.003    5582.2982    42.315242    302.63189 
    6000   -32055.402   -37638.483   -39654.363    5646.9387   -13.433897    304.50461 
    6100   -32167.091   -37722.839   -39748.007    5508.6102    -89.04834    303.01387 
    6200   -31997.068   -37575.367   -39620.409    5533.4614   -68.102894    304.24379 
    6300    -31980.29   -37478.748   -39545.295    5596.9498   -53.957495    299.88926 
    6400   -32098.929   -37630.552   -39721.507    5618.8433    10.951869    301.69809 
    6500   -32144.132   -37774.213   -39852.325    5546.2809    8.3079254    307.06803 
    6600   -32034.594   -37574.409   -39663.657    5654.9433     39.47138     302.1449 
    6700   -32225.472   -37757.258    -39824.48    5542.9487   -121.56188    301.70701 
    6800   -32094.928   -37571.517   -39669.651    5535.4344    91.714605    298.69645 
    6900   -32356.738   -37906.402   -39970.887    5561.4985   -70.559199    302.68208 
    7000   -32157.646   -37715.125   -39728.419    5643.1908    109.19174    303.10828 
    7100   -32158.192   -37795.637   -39869.319    5581.0506    20.445378    307.46966 
    7200   -32188.862   -37837.826   -39900.628    5496.4557   -31.464733     308.0979 
    7300   -32215.449   -37724.606   -39791.522     5650.163   -18.933714     300.4728 
    7400   -32099.282   -37655.686   -39733.932    5567.8748    45.627797    303.04962 
    7500    -32339.84   -37880.461   -39907.345     5588.764   -74.835525    302.18885 
    7600   -32321.471   -37875.758   -39944.331     5532.376    -96.38878    302.93415 
    7700   -32510.349   -37960.093   -40076.914    5602.5526   -4.8356698    297.23234 
    7800   -32320.356   -37877.514   -39957.071     5535.754     9.731048    303.09078 
    7900   -32247.909   -37765.019   -39900.733    5519.0582   -63.382568    300.90655 
    8000   -32245.899   -37798.941   -39936.193    5672.5444   -42.954153    302.86627 
Loop time of 55.1985 on 8 procs for 5000 steps with 6152 atoms

Pair  time (%) = 34.2794 (62.102)
Bond  time (%) = 0.271309 (0.491516)
Neigh time (%) = 5.89865 (10.6863)
Comm  time (%) = 12.5912 (22.8107)
Outpt time (%) = 0.142698 (0.258518)
Other time (%) = 2.01526 (3.65094)

Nlocal:    769 ave 790 max 727 min
Histogram: 1 0 0 0 0 1 3 0 0 3
Nghost:    3547.62 ave 3590 max 3493 min
Histogram: 1 1 0 0 1 1 1 1 1 1
Neighs:    72054.5 ave 76096 max 64589 min
Histogram: 1 0 0 0 1 0 1 3 1 1

Total # of neighbors = 576436
Ave neighs/atom = 93.699
Ave special neighs/atom = 0.582575
Neighbor list builds = 1336
Dangerous builds = 0
