LAMMPS (30 Sep 2013)
units		real
atom_style	hybrid angle dipole sphere
read_data 	data.128lip4232wat
  2 = max bonds/atom
  2 = max angles/atom
  orthogonal box = (-34.0234 -34.0234 -31.763) to (34.0234 34.0234 31.763)
  1 by 1 by 1 MPI processor grid
  6152 atoms
  1792 bonds
  2048 angles
  3 = max # of 1-2 neighbors
  3 = max # of 1-3 neighbors
  6 = max # of 1-4 neighbors
  8 = max # of special neighbors
include 	forcefield.elba
pair_style lj/sf/dipole/sf 12.0
special_bonds lj/coul 0.0 1.0 1.0
  3 = max # of 1-2 neighbors
  3 = max # of special neighbors
bond_style harmonic
angle_style hybrid cosine/squared dipole

#   atomType  mass
mass    1   40.000  # wat
mass    2   90.000  # chol
mass    3   90.000  # phos
mass    4   62.000  # glyc
mass    5   62.000  # est
mass    6   42.000  # tail

# Set diameters. These values are in turn used to obtain the moment of
# inertia, used in the rotational integration.
set type 1 diameter 5.0 # wat dipole
  4232 settings made for diameter
set type 4 diameter 12.7 # gly dipole
  128 settings made for diameter
set type 5 diameter 12.7 # est dipole
  256 settings made for diameter

# Lennard-Jones coefficients:
#           iType jType	  eps_ij sig_ij
pair_coeff    1    1	  0.550  3.050 # wat-wat
pair_coeff    1    2	  0.725  4.225 # wat-chol
pair_coeff    1    3	  0.943  4.125 # wat-phos
pair_coeff    1    4	  0.651  3.825 # wat-gly
pair_coeff    1    5	  0.710  3.825 # wat-est
pair_coeff    1    6	  0.554  3.775 # wat-tail
pair_coeff    2    2	  1.434  5.400 # chol-chol
pair_coeff    2    3	  1.434  5.300 # chol-phos
pair_coeff    2    4	  1.171  5.000 # chol-gly
pair_coeff    2    5	  1.171  5.000 # chol-est
pair_coeff    2    6	  1.095  4.950 # chol-tail
pair_coeff    3    3	  1.434  5.200 # phos-phos
pair_coeff    3    4	  1.171  4.900 # phos-gly
pair_coeff    3    5	  1.171  4.900 # phos-est
pair_coeff    3    6	  1.095  4.850 # phos-tail
pair_coeff    4    4	  0.956  4.600 # gly-gly
pair_coeff    4    5	  0.956  4.600 # gly-est
pair_coeff    4    6	  0.894  4.550 # gly-tail
pair_coeff    5    5	  0.956  4.600 # est-est
pair_coeff    5    6	  0.894  4.550 # est-tail
pair_coeff    6    6	  0.837  4.500 # tail-tail

# harmonic bond coefficients:
#         bondType   K     r0
bond_coeff    1    1.506  4.770 # chol--phos
bond_coeff    2    1.506  4.410 # phos--gly
bond_coeff    3    1.506  4.140 # gly--est
bond_coeff    4    1.506  4.095 # est--tail
bond_coeff    5    1.506  4.050 # tail--tail

# angle coefficients:
#	  angleType	             K    theta0
angle_coeff    1  cosine/squared   3.585  115.00 # chol-phos-gly
angle_coeff    2  cosine/squared   3.585   90.00 # phos-gly-est
angle_coeff    3  cosine/squared   3.585  180.00 # gly-est-tail, tail-tail
angle_coeff    4  cosine/squared   3.585  120.00 # tail-tail-tail (unsat)
# dipole angle coefficients:
#	  angleType	   K   gamma0
angle_coeff    5  dipole 1.195  0.00 # glyDip-phos, estDip-tail

velocity	all create 0.0 87287

variable	nLips equal 128 # total number of lipids
variable	nWats equal 4232 # total number of waters
variable	watVol equal 30.0 # water molecular volume (~30 A^3)
variable	atmA__in__mN_m equal 0.01013 # 1 atm*A = 0.01013 mN/m

variable	Neqnvt equal 5000
variable	Neqnpt equal 50000
variable	Nprod equal 100000
variable	Nthe equal 5000
variable	Ndump equal 10000
variable	Ne equal 2
variable	Nr equal 50000
variable	Nf equal ${Nprod}+${Neqnvt}+${Neqnpt}
variable	Nf equal 100000+${Neqnvt}+${Neqnpt}
variable	Nf equal 100000+5000+${Neqnpt}
variable	Nf equal 100000+5000+50000
variable	Nthe_e equal ${Nthe}/${Ne}
variable	Nthe_e equal 5000/${Ne}
variable	Nthe_e equal 5000/2
variable	Dz equal 1.0

group		lip type 2 3 4 5 6
1920 atoms in group lip
group		head type 2 3
256 atoms in group head
group		wat type 1
4232 atoms in group wat
group		chol type 2
128 atoms in group chol
group		phos type 3
128 atoms in group phos
group		gly type 4
128 atoms in group gly
group		est type 5
256 atoms in group est
group		tail type 6
1280 atoms in group tail

timestep	10
neighbor	1 bin
neigh_modify	delay 0

fix		integrate all nve/sphere update dipole
fix 		thermo all langevin 303 303 1000 9 omega yes zero yes
fix             removeMomentum all momentum 100 linear 1 1 1 # angular

dump	trj all custom ${Ndump} dump.*.trj id type mol x y z mux muy muz
dump	trj all custom 10000 dump.*.trj id type mol x y z mux muy muz
dump_modify	trj sort id pad 6

# compute and average area and volume per lipid:
variable	lipArea equal lx*ly/(${nLips}/2)
variable	lipArea equal lx*ly/(128/2)
fix		lipArea lip ave/time ${Ne} ${Nthe_e} ${Nthe} v_lipArea
fix		lipArea lip ave/time 2 ${Nthe_e} ${Nthe} v_lipArea
fix		lipArea lip ave/time 2 2500 ${Nthe} v_lipArea
fix		lipArea lip ave/time 2 2500 5000 v_lipArea
variable	lipVol equal (vol-(${nWats}*${watVol}))/${nLips}
variable	lipVol equal (vol-(4232*${watVol}))/${nLips}
variable	lipVol equal (vol-(4232*30))/${nLips}
variable	lipVol equal (vol-(4232*30))/128
fix		lipVol lip ave/time ${Ne} ${Nthe_e} ${Nthe} v_lipVol
fix		lipVol lip ave/time 2 ${Nthe_e} ${Nthe} v_lipVol
fix		lipVol lip ave/time 2 2500 ${Nthe} v_lipVol
fix		lipVol lip ave/time 2 2500 5000 v_lipVol

# compute and average pressure:
variable	P equal press
fix 		P all ave/time ${Ne} ${Nthe_e} ${Nthe} v_P
fix 		P all ave/time 2 ${Nthe_e} ${Nthe} v_P
fix 		P all ave/time 2 2500 ${Nthe} v_P
fix 		P all ave/time 2 2500 5000 v_P

# compute and average total (translational + rotational) temperature:
compute 	tempTot all temp/sphere dof all
fix 		tempTot all ave/time ${Ne} ${Nthe_e} ${Nthe} c_tempTot
fix 		tempTot all ave/time 2 ${Nthe_e} ${Nthe} c_tempTot
fix 		tempTot all ave/time 2 2500 ${Nthe} c_tempTot
fix 		tempTot all ave/time 2 2500 5000 c_tempTot
#compute_modify  tempTot extra 3 # default -> no effect

# compute and average rotational temperature:
compute 	tempRot all temp/sphere dof rotate
fix 		tempRot all ave/time ${Ne} ${Nthe_e} ${Nthe} c_tempRot
fix 		tempRot all ave/time 2 ${Nthe_e} ${Nthe} c_tempRot
fix 		tempRot all ave/time 2 2500 ${Nthe} c_tempRot
fix 		tempRot all ave/time 2 2500 5000 c_tempRot

thermo_style custom step press f_P temp f_tempTot f_tempRot f_lipArea f_lipVol
thermo		${Nthe}
thermo		5000

# compute and average surface tension (gamma) per monolayer:
variable	gamma equal (0.5*lz*(pzz-0.5*(pxx+pyy))/3)*${atmA__in__mN_m}
variable	gamma equal (0.5*lz*(pzz-0.5*(pxx+pyy))/3)*0.010130000000000000115
fix	gamma all ave/time ${Ne} ${Nthe_e} ${Nthe} v_gamma file gamma.dat
fix	gamma all ave/time 2 ${Nthe_e} ${Nthe} v_gamma file gamma.dat
fix	gamma all ave/time 2 2500 ${Nthe} v_gamma file gamma.dat
fix	gamma all ave/time 2 2500 5000 v_gamma file gamma.dat

# compute and average interface area (bilayer assumed parallel to xy plane):
variable	xyArea equal lx*ly
fix 		xyArea all ave/time 1 1 ${Ne} v_xyArea file xyArea.dat
fix 		xyArea all ave/time 1 1 2 v_xyArea file xyArea.dat

# compute and average box volume:
variable	boxVol equal vol
fix 		boxVol all ave/time 1 1 ${Ne} v_boxVol file boxVol.dat
fix 		boxVol all ave/time 1 1 2 v_boxVol file boxVol.dat

run		${Neqnvt}
run		5000
WARNING: Inconsistent image flags (../domain.cpp:607)
Memory usage per processor = 14.5322 Mbytes
Step Press P Temp tempTot tempRot lipArea lipVol 
       0    8307.8375            0            0            0            0            0            0 
    5000    178.59594    334.78979    300.10758     302.3144    302.54613    72.349569    1306.1622 
Loop time of 364.255 on 1 procs for 5000 steps with 6152 atoms

Pair  time (%) = 319.872 (87.8154)
Bond  time (%) = 1.54783 (0.42493)
Neigh time (%) = 30.6773 (8.42193)
Comm  time (%) = 2.75228 (0.755592)
Outpt time (%) = 4.60148e-05 (1.26326e-05)
Other time (%) = 9.40552 (2.58213)

Nlocal:    6152 ave 6152 max 6152 min
Histogram: 1 0 0 0 0 0 0 0 0 0
Nghost:    12844 ave 12844 max 12844 min
Histogram: 1 0 0 0 0 0 0 0 0 0
Neighs:    673824 ave 673824 max 673824 min
Histogram: 1 0 0 0 0 0 0 0 0 0

Total # of neighbors = 673824
Ave neighs/atom = 109.529
Ave special neighs/atom = 0.582575
Neighbor list builds = 1012
Dangerous builds = 0

fix		baro all press/berendsen aniso 1 1 1000 couple xy modulus 21740

run		${Neqnpt}
run		50000
WARNING: Inconsistent image flags (../domain.cpp:607)
Memory usage per processor = 14.5322 Mbytes
Step Press P Temp tempTot tempRot lipArea lipVol 
    5000    178.59594    334.78979    300.10758     302.3144    302.54613    72.349569    1306.1622 
   10000    26.627884    5.3851778    308.72255     302.4474    302.54564    73.366054    1328.9804 
   15000   -13.269787   0.35053055    304.73706    303.48273    303.19084    73.724565    1327.5227 
   20000    105.60846    2.1928031    299.64235    302.95966    302.99872    73.423398    1326.6802 
   25000   -164.31437   0.83230746    306.47607    303.18581    303.36364    73.562948    1328.4242 
   30000   -98.778743   0.81833636     297.5422     302.9584     303.0421    73.957971    1327.2568 
   35000   -37.307256  -0.15283018    308.59301    303.19527    303.48008    73.847738    1326.0772 
   40000   -4.1908563    1.0270519    302.33626    302.96263     303.0492    73.604701    1326.1825 
   45000    39.349116   0.69733474    296.04503    302.99666    303.03185    73.838372    1322.3136 
   50000    60.637776    1.8644065    303.34888    303.56171    303.61675    73.707731     1320.024 
   55000    149.81028  -0.69391908    307.24534    302.93914    303.16829    73.209987     1321.575 
Loop time of 3666.07 on 1 procs for 50000 steps with 6152 atoms

Pair  time (%) = 3211.24 (87.5935)
Bond  time (%) = 17.3745 (0.473928)
Neigh time (%) = 308.251 (8.40821)
Comm  time (%) = 28.0884 (0.766172)
Outpt time (%) = 0.0888362 (0.0024232)
Other time (%) = 101.028 (2.75576)

Nlocal:    6152 ave 6152 max 6152 min
Histogram: 1 0 0 0 0 0 0 0 0 0
Nghost:    12900 ave 12900 max 12900 min
Histogram: 1 0 0 0 0 0 0 0 0 0
Neighs:    677034 ave 677034 max 677034 min
Histogram: 1 0 0 0 0 0 0 0 0 0

Total # of neighbors = 677034
Ave neighs/atom = 110.051
Ave special neighs/atom = 0.582575
Neighbor list builds = 10161
Dangerous builds = 0

fix 	numDensLip lip ave/spatial ${Ne} ${Nr} ${Nf} z center ${Dz} 		density/number units box file numDensLip.zProfile
fix 	numDensLip lip ave/spatial 2 ${Nr} ${Nf} z center ${Dz} 		density/number units box file numDensLip.zProfile
fix 	numDensLip lip ave/spatial 2 50000 ${Nf} z center ${Dz} 		density/number units box file numDensLip.zProfile
fix 	numDensLip lip ave/spatial 2 50000 155000 z center ${Dz} 		density/number units box file numDensLip.zProfile
fix 	numDensLip lip ave/spatial 2 50000 155000 z center 1 		density/number units box file numDensLip.zProfile
fix 	numDensWat wat ave/spatial ${Ne} ${Nr} ${Nf} z center ${Dz} 		density/number units box file numDensWat.zProfile
fix 	numDensWat wat ave/spatial 2 ${Nr} ${Nf} z center ${Dz} 		density/number units box file numDensWat.zProfile
fix 	numDensWat wat ave/spatial 2 50000 ${Nf} z center ${Dz} 		density/number units box file numDensWat.zProfile
fix 	numDensWat wat ave/spatial 2 50000 155000 z center ${Dz} 		density/number units box file numDensWat.zProfile
fix 	numDensWat wat ave/spatial 2 50000 155000 z center 1 		density/number units box file numDensWat.zProfile
fix 	numDensChol chol ave/spatial ${Ne} ${Nr} ${Nf} z center ${Dz} 		density/number units box file numDensChol.zProfile
fix 	numDensChol chol ave/spatial 2 ${Nr} ${Nf} z center ${Dz} 		density/number units box file numDensChol.zProfile
fix 	numDensChol chol ave/spatial 2 50000 ${Nf} z center ${Dz} 		density/number units box file numDensChol.zProfile
fix 	numDensChol chol ave/spatial 2 50000 155000 z center ${Dz} 		density/number units box file numDensChol.zProfile
fix 	numDensChol chol ave/spatial 2 50000 155000 z center 1 		density/number units box file numDensChol.zProfile
fix 	numDensPhos phos ave/spatial ${Ne} ${Nr} ${Nf} z center ${Dz} 		density/number units box file numDensPhos.zProfile
fix 	numDensPhos phos ave/spatial 2 ${Nr} ${Nf} z center ${Dz} 		density/number units box file numDensPhos.zProfile
fix 	numDensPhos phos ave/spatial 2 50000 ${Nf} z center ${Dz} 		density/number units box file numDensPhos.zProfile
fix 	numDensPhos phos ave/spatial 2 50000 155000 z center ${Dz} 		density/number units box file numDensPhos.zProfile
fix 	numDensPhos phos ave/spatial 2 50000 155000 z center 1 		density/number units box file numDensPhos.zProfile
fix 	numDensGly gly ave/spatial ${Ne} ${Nr} ${Nf} z center ${Dz} 		density/number units box file numDensGly.zProfile
fix 	numDensGly gly ave/spatial 2 ${Nr} ${Nf} z center ${Dz} 		density/number units box file numDensGly.zProfile
fix 	numDensGly gly ave/spatial 2 50000 ${Nf} z center ${Dz} 		density/number units box file numDensGly.zProfile
fix 	numDensGly gly ave/spatial 2 50000 155000 z center ${Dz} 		density/number units box file numDensGly.zProfile
fix 	numDensGly gly ave/spatial 2 50000 155000 z center 1 		density/number units box file numDensGly.zProfile
fix 	numDensEst est ave/spatial ${Ne} ${Nr} ${Nf} z center ${Dz} 		density/number units box file numDensEst.zProfile
fix 	numDensEst est ave/spatial 2 ${Nr} ${Nf} z center ${Dz} 		density/number units box file numDensEst.zProfile
fix 	numDensEst est ave/spatial 2 50000 ${Nf} z center ${Dz} 		density/number units box file numDensEst.zProfile
fix 	numDensEst est ave/spatial 2 50000 155000 z center ${Dz} 		density/number units box file numDensEst.zProfile
fix 	numDensEst est ave/spatial 2 50000 155000 z center 1 		density/number units box file numDensEst.zProfile
fix 	numDensTail tail ave/spatial ${Ne} ${Nr} ${Nf} z center ${Dz} 		density/number units box file numDensTail.zProfile
fix 	numDensTail tail ave/spatial 2 ${Nr} ${Nf} z center ${Dz} 		density/number units box file numDensTail.zProfile
fix 	numDensTail tail ave/spatial 2 50000 ${Nf} z center ${Dz} 		density/number units box file numDensTail.zProfile
fix 	numDensTail tail ave/spatial 2 50000 155000 z center ${Dz} 		density/number units box file numDensTail.zProfile
fix 	numDensTail tail ave/spatial 2 50000 155000 z center 1 		density/number units box file numDensTail.zProfile

compute		stpa all stress/atom
fix	stress all ave/spatial ${Ne} ${Nr} ${Nf} z center ${Dz} 		c_stpa[1] c_stpa[2] c_stpa[3] c_stpa[4] c_stpa[5] c_stpa[6] 		units box file stress.zProfile
fix	stress all ave/spatial 2 ${Nr} ${Nf} z center ${Dz} 		c_stpa[1] c_stpa[2] c_stpa[3] c_stpa[4] c_stpa[5] c_stpa[6] 		units box file stress.zProfile
fix	stress all ave/spatial 2 50000 ${Nf} z center ${Dz} 		c_stpa[1] c_stpa[2] c_stpa[3] c_stpa[4] c_stpa[5] c_stpa[6] 		units box file stress.zProfile
fix	stress all ave/spatial 2 50000 155000 z center ${Dz} 		c_stpa[1] c_stpa[2] c_stpa[3] c_stpa[4] c_stpa[5] c_stpa[6] 		units box file stress.zProfile
fix	stress all ave/spatial 2 50000 155000 z center 1 		c_stpa[1] c_stpa[2] c_stpa[3] c_stpa[4] c_stpa[5] c_stpa[6] 		units box file stress.zProfile

compute		stke all stress/atom ke
fix	stressKinEn all ave/spatial ${Ne} ${Nr} ${Nf} z center ${Dz} 		c_stke[1] c_stke[2] c_stke[3] c_stke[4] c_stke[5] c_stke[6] 		units box file stressKinEn.zProfile
fix	stressKinEn all ave/spatial 2 ${Nr} ${Nf} z center ${Dz} 		c_stke[1] c_stke[2] c_stke[3] c_stke[4] c_stke[5] c_stke[6] 		units box file stressKinEn.zProfile
fix	stressKinEn all ave/spatial 2 50000 ${Nf} z center ${Dz} 		c_stke[1] c_stke[2] c_stke[3] c_stke[4] c_stke[5] c_stke[6] 		units box file stressKinEn.zProfile
fix	stressKinEn all ave/spatial 2 50000 155000 z center ${Dz} 		c_stke[1] c_stke[2] c_stke[3] c_stke[4] c_stke[5] c_stke[6] 		units box file stressKinEn.zProfile
fix	stressKinEn all ave/spatial 2 50000 155000 z center 1 		c_stke[1] c_stke[2] c_stke[3] c_stke[4] c_stke[5] c_stke[6] 		units box file stressKinEn.zProfile

compute		stnb all stress/atom pair
fix	stressNonBond all ave/spatial ${Ne} ${Nr} ${Nf} z center ${Dz} 		c_stnb[1] c_stnb[2] c_stnb[3] c_stnb[4] c_stnb[5] c_stnb[6] 		units box file stressNonBond.zProfile
fix	stressNonBond all ave/spatial 2 ${Nr} ${Nf} z center ${Dz} 		c_stnb[1] c_stnb[2] c_stnb[3] c_stnb[4] c_stnb[5] c_stnb[6] 		units box file stressNonBond.zProfile
fix	stressNonBond all ave/spatial 2 50000 ${Nf} z center ${Dz} 		c_stnb[1] c_stnb[2] c_stnb[3] c_stnb[4] c_stnb[5] c_stnb[6] 		units box file stressNonBond.zProfile
fix	stressNonBond all ave/spatial 2 50000 155000 z center ${Dz} 		c_stnb[1] c_stnb[2] c_stnb[3] c_stnb[4] c_stnb[5] c_stnb[6] 		units box file stressNonBond.zProfile
fix	stressNonBond all ave/spatial 2 50000 155000 z center 1 		c_stnb[1] c_stnb[2] c_stnb[3] c_stnb[4] c_stnb[5] c_stnb[6] 		units box file stressNonBond.zProfile

compute		stb all stress/atom bond
fix	stressBond all ave/spatial ${Ne} ${Nr} ${Nf} z center ${Dz} 		c_stb[1] c_stb[2] c_stb[3] c_stb[4] c_stb[5] c_stb[6] 		units box file stressBond.zProfile
fix	stressBond all ave/spatial 2 ${Nr} ${Nf} z center ${Dz} 		c_stb[1] c_stb[2] c_stb[3] c_stb[4] c_stb[5] c_stb[6] 		units box file stressBond.zProfile
fix	stressBond all ave/spatial 2 50000 ${Nf} z center ${Dz} 		c_stb[1] c_stb[2] c_stb[3] c_stb[4] c_stb[5] c_stb[6] 		units box file stressBond.zProfile
fix	stressBond all ave/spatial 2 50000 155000 z center ${Dz} 		c_stb[1] c_stb[2] c_stb[3] c_stb[4] c_stb[5] c_stb[6] 		units box file stressBond.zProfile
fix	stressBond all ave/spatial 2 50000 155000 z center 1 		c_stb[1] c_stb[2] c_stb[3] c_stb[4] c_stb[5] c_stb[6] 		units box file stressBond.zProfile

compute		sta all stress/atom angle
fix	stressAngle all ave/spatial ${Ne} ${Nr} ${Nf} z center ${Dz} 		c_sta[1] c_sta[2] c_sta[3] c_sta[4] c_sta[5] c_sta[6] 		units box file stressAngle.zProfile
fix	stressAngle all ave/spatial 2 ${Nr} ${Nf} z center ${Dz} 		c_sta[1] c_sta[2] c_sta[3] c_sta[4] c_sta[5] c_sta[6] 		units box file stressAngle.zProfile
fix	stressAngle all ave/spatial 2 50000 ${Nf} z center ${Dz} 		c_sta[1] c_sta[2] c_sta[3] c_sta[4] c_sta[5] c_sta[6] 		units box file stressAngle.zProfile
fix	stressAngle all ave/spatial 2 50000 155000 z center ${Dz} 		c_sta[1] c_sta[2] c_sta[3] c_sta[4] c_sta[5] c_sta[6] 		units box file stressAngle.zProfile
fix	stressAngle all ave/spatial 2 50000 155000 z center 1 		c_sta[1] c_sta[2] c_sta[3] c_sta[4] c_sta[5] c_sta[6] 		units box file stressAngle.zProfile

compute		stv all stress/atom virial # check this is redundant
fix	stressVir all ave/spatial ${Ne} ${Nr} ${Nf} z center ${Dz} 		c_stv[1] c_stv[2] c_stv[3] c_stv[4] c_stv[5] c_stv[6] 		units box file stressVir.zProfile
fix	stressVir all ave/spatial 2 ${Nr} ${Nf} z center ${Dz} 		c_stv[1] c_stv[2] c_stv[3] c_stv[4] c_stv[5] c_stv[6] 		units box file stressVir.zProfile
fix	stressVir all ave/spatial 2 50000 ${Nf} z center ${Dz} 		c_stv[1] c_stv[2] c_stv[3] c_stv[4] c_stv[5] c_stv[6] 		units box file stressVir.zProfile
fix	stressVir all ave/spatial 2 50000 155000 z center ${Dz} 		c_stv[1] c_stv[2] c_stv[3] c_stv[4] c_stv[5] c_stv[6] 		units box file stressVir.zProfile
fix	stressVir all ave/spatial 2 50000 155000 z center 1 		c_stv[1] c_stv[2] c_stv[3] c_stv[4] c_stv[5] c_stv[6] 		units box file stressVir.zProfile

compute		chgHead head property/atom q
fix 	qDensHead head ave/spatial ${Ne} ${Nr} ${Nf} z center ${Dz} 		c_chgHead units box file qDensHead.zProfile
fix 	qDensHead head ave/spatial 2 ${Nr} ${Nf} z center ${Dz} 		c_chgHead units box file qDensHead.zProfile
fix 	qDensHead head ave/spatial 2 50000 ${Nf} z center ${Dz} 		c_chgHead units box file qDensHead.zProfile
fix 	qDensHead head ave/spatial 2 50000 155000 z center ${Dz} 		c_chgHead units box file qDensHead.zProfile
fix 	qDensHead head ave/spatial 2 50000 155000 z center 1 		c_chgHead units box file qDensHead.zProfile

compute		dipGly gly property/atom muz
fix 	muzGly gly ave/spatial ${Ne} ${Nr} ${Nf} z center ${Dz} 		c_dipGly units box file muzGly.zProfile
fix 	muzGly gly ave/spatial 2 ${Nr} ${Nf} z center ${Dz} 		c_dipGly units box file muzGly.zProfile
fix 	muzGly gly ave/spatial 2 50000 ${Nf} z center ${Dz} 		c_dipGly units box file muzGly.zProfile
fix 	muzGly gly ave/spatial 2 50000 155000 z center ${Dz} 		c_dipGly units box file muzGly.zProfile
fix 	muzGly gly ave/spatial 2 50000 155000 z center 1 		c_dipGly units box file muzGly.zProfile

compute		dipEst est property/atom muz
fix 	muzEst est ave/spatial ${Ne} ${Nr} ${Nf} z center ${Dz} 		c_dipEst units box file muzEst.zProfile
fix 	muzEst est ave/spatial 2 ${Nr} ${Nf} z center ${Dz} 		c_dipEst units box file muzEst.zProfile
fix 	muzEst est ave/spatial 2 50000 ${Nf} z center ${Dz} 		c_dipEst units box file muzEst.zProfile
fix 	muzEst est ave/spatial 2 50000 155000 z center ${Dz} 		c_dipEst units box file muzEst.zProfile
fix 	muzEst est ave/spatial 2 50000 155000 z center 1 		c_dipEst units box file muzEst.zProfile

compute		dipWat wat property/atom muz
fix 	muzWat wat ave/spatial ${Ne} ${Nr} ${Nf} z center ${Dz} 		c_dipWat units box file muzWat.zProfile
fix 	muzWat wat ave/spatial 2 ${Nr} ${Nf} z center ${Dz} 		c_dipWat units box file muzWat.zProfile
fix 	muzWat wat ave/spatial 2 50000 ${Nf} z center ${Dz} 		c_dipWat units box file muzWat.zProfile
fix 	muzWat wat ave/spatial 2 50000 155000 z center ${Dz} 		c_dipWat units box file muzWat.zProfile
fix 	muzWat wat ave/spatial 2 50000 155000 z center 1 		c_dipWat units box file muzWat.zProfile

compute		msd gly msd com yes
fix 		msd gly ave/time 1 1 ${Ne} c_msd[4] file gly.msd
fix 		msd gly ave/time 1 1 2 c_msd[4] file gly.msd

run		${Nprod}
run		100000
WARNING: Inconsistent image flags (../domain.cpp:607)
Memory usage per processor = 21.181 Mbytes
Step Press P Temp tempTot tempRot lipArea lipVol 
   55000    144.92461  -0.69391908    307.24534    302.93914    303.16829    73.209987     1321.575 
   60000   -139.21304    1.8172543    303.58734    303.01993     302.9429    72.508655    1319.4197 
   65000      81.3538     0.777856    302.32728    303.03835    303.29006    73.174754    1322.0261 
   70000   0.88472856  -0.05191763    306.31024    302.96972    302.70349    73.379535     1322.904 
   75000    118.86226    2.5630267    305.92133    303.22831    303.27005    73.303991    1323.0341 
   80000    83.055066    1.0279968    297.56392    303.32307    303.40617    72.829681     1320.426 
   85000   -76.220025   0.79066776    302.72892    303.03461    303.12606    72.258099    1323.8205 
   90000   -3.5951891   0.78952455    304.31619    302.69118    302.86526    71.837099    1322.1361 
   95000    5.6035377    2.5366346    306.99365    302.78704    302.87498    72.134045    1322.4072 
  100000    129.68198    -1.238888    300.57851    302.87511    302.96464    72.198224    1320.1373 
  105000   -1.3511985    2.0440618    302.23175     302.8171    302.69832       72.469    1320.2214 
  110000   -6.2379562    2.2866724     306.3307    303.24391    303.20707    72.613023    1325.3563 
  115000    -76.48802  -0.40704367    301.63433    303.20595    303.43325    72.573711    1324.7716 
  120000   -55.780433    1.7526486    307.06107    303.13868    303.42412    72.299609    1325.1149 
  125000     57.85868   0.33454605    303.03787    302.96525    302.94223    72.535761    1324.3041 
  130000   -61.150229    1.2052711    305.67451    303.05771    303.19912    72.183198    1322.5017 
  135000     72.09308    1.4846906    306.82214    303.04237    303.08616    72.406659    1325.9737 
  140000   -78.620488   0.18519455     303.1111    303.32105    303.47591    72.628291    1324.9226 
  145000    31.625351   0.19876566    300.30123    303.20312    303.12702    71.840545    1323.8027 
  150000    5.0706443    1.4202729    298.89764    303.11839    303.59259    71.740116    1321.2708 
  155000   -42.424349   0.62360238    299.77591    303.25135    303.00018    71.876453     1325.158 
Loop time of 8567 on 1 procs for 100000 steps with 6152 atoms

Pair  time (%) = 7222.56 (84.3067)
Bond  time (%) = 96.6401 (1.12805)
Neigh time (%) = 619.397 (7.23003)
Comm  time (%) = 61.2953 (0.715481)
Outpt time (%) = 0.196308 (0.00229144)
Other time (%) = 566.92 (6.61748)

Nlocal:    6152 ave 6152 max 6152 min
Histogram: 1 0 0 0 0 0 0 0 0 0
Nghost:    12925 ave 12925 max 12925 min
Histogram: 1 0 0 0 0 0 0 0 0 0
Neighs:    676183 ave 676183 max 676183 min
Histogram: 1 0 0 0 0 0 0 0 0 0

Total # of neighbors = 676183
Ave neighs/atom = 109.913
Ave special neighs/atom = 0.582575
Neighbor list builds = 20351
Dangerous builds = 0


