LAMMPS (14 May 2013)
WARNING: OMP_NUM_THREADS environment is not set. (../comm.cpp:100)
  using 1 OpenMP thread(s) per MPI task
units		real
atom_style	hybrid angle dipole sphere
read_data 	data.128lip4232wat
  2 = max bonds/atom
  2 = max angles/atom
  orthogonal box = (-34.0234 -34.0234 -31.763) to (34.0234 34.0234 31.763)
  2 by 2 by 1 MPI processor grid
  6152 atoms
  1792 bonds
  2048 angles
  3 = max # of 1-2 neighbors
  3 = max # of 1-3 neighbors
  6 = max # of 1-4 neighbors
  8 = max # of special neighbors
include 	forcefield.elba
pair_style dipole/sf 12.0
special_bonds lj/coul 0.0 1.0 1.0
  3 = max # of 1-2 neighbors
  3 = max # of special neighbors
bond_style harmonic
angle_style hybrid cosine/squared dipole

#   atomType  mass
mass    1   40.000  # wat
mass    2   90.000  # chol
mass    3   90.000  # phos
mass    4   62.000  # glyc
mass    5   62.000  # est
mass    6   42.000  # tail

# Set diameters. These values are in turn used to obtain the moment of
# inertia, used in the rotational integration.
set type 1 diameter 5.0 # wat dipole
  4232 settings made for diameter
set type 4 diameter 12.7 # gly dipole
  128 settings made for diameter
set type 5 diameter 12.7 # est dipole
  256 settings made for diameter

# Lennard-Jones coefficients:
#           iType jType	  eps_ij sig_ij
pair_coeff    1    1	  0.550  3.050 # wat-wat
pair_coeff    1    2	  0.725  4.225 # wat-chol
pair_coeff    1    3	  0.943  4.125 # wat-phos
pair_coeff    1    4	  0.651  3.825 # wat-gly
pair_coeff    1    5	  0.710  3.825 # wat-est
pair_coeff    1    6	  0.554  3.775 # wat-tail
pair_coeff    2    2	  1.434  5.400 # chol-chol
pair_coeff    2    3	  1.434  5.300 # chol-phos
pair_coeff    2    4	  1.171  5.000 # chol-gly
pair_coeff    2    5	  1.171  5.000 # chol-est
pair_coeff    2    6	  1.095  4.950 # chol-tail
pair_coeff    3    3	  1.434  5.200 # phos-phos
pair_coeff    3    4	  1.171  4.900 # phos-gly
pair_coeff    3    5	  1.171  4.900 # phos-est
pair_coeff    3    6	  1.095  4.850 # phos-tail
pair_coeff    4    4	  0.956  4.600 # gly-gly
pair_coeff    4    5	  0.956  4.600 # gly-est
pair_coeff    4    6	  0.894  4.550 # gly-tail
pair_coeff    5    5	  0.956  4.600 # est-est
pair_coeff    5    6	  0.894  4.550 # est-tail
pair_coeff    6    6	  0.837  4.500 # tail-tail

# harmonic bond coefficients:
#         bondType   K     r0
bond_coeff    1    1.506  4.770 # chol--phos
bond_coeff    2    1.506  4.410 # phos--gly
bond_coeff    3    1.506  4.140 # gly--est
bond_coeff    4    1.506  4.095 # est--tail
bond_coeff    5    1.506  4.050 # tail--tail

# angle coefficients:
#	  angleType	             K    theta0
angle_coeff    1  cosine/squared   3.585  115.00 # chol-phos-gly
angle_coeff    2  cosine/squared   3.585   90.00 # phos-gly-est
angle_coeff    3  cosine/squared   3.585  180.00 # gly-est-tail, tail-tail
angle_coeff    4  cosine/squared   3.585  120.00 # tail-tail-tail (unsat)
# dipole angle coefficients:
#	  angleType	   K   gamma0
angle_coeff    5  dipole 1.195  0.00 # glyDip-phos, estDip-tail

velocity	all create 0.0 87287

variable	nLips equal 128 # total number of lipids
variable	nWats equal 4232 # total number of waters
variable	watVol equal 30.0 # water molecular volume (~30 A^3)
variable	atmA__in__mN_m equal 0.01013 # 1 atm*A = 0.01013 mN/m

variable	Neqnvt equal 5000
variable	Neqnpt equal 50000
variable	Nprod equal 100000
variable	Nthe equal 5000
variable	Ndump equal 10000
variable	Ne equal 2
variable	Nr equal 50000
variable	Nf equal ${Nprod}+${Neqnvt}+${Neqnpt}
variable	Nf equal 100000+${Neqnvt}+${Neqnpt}
variable	Nf equal 100000+5000+${Neqnpt}
variable	Nf equal 100000+5000+50000
variable	Nthe_e equal ${Nthe}/${Ne}
variable	Nthe_e equal 5000/${Ne}
variable	Nthe_e equal 5000/2
variable	Dz equal 1.0

group		lip type 2 3 4 5 6
1920 atoms in group lip
group		head type 2 3
256 atoms in group head
group		wat type 1
4232 atoms in group wat
group		chol type 2
128 atoms in group chol
group		phos type 3
128 atoms in group phos
group		gly type 4
128 atoms in group gly
group		est type 5
256 atoms in group est
group		tail type 6
1280 atoms in group tail

timestep	10
neighbor	1 bin
neigh_modify	delay 0

fix		integrate all nve/sphere update dipole
fix 		thermo all langevin 303 303 1000 9 omega yes zero yes
fix             removeMomentum all momentum 100 linear 1 1 1 # angular

dump	trj all custom ${Ndump} dump.*.trj id type mol x y z mux muy muz
dump	trj all custom 10000 dump.*.trj id type mol x y z mux muy muz
dump_modify	trj sort id pad 6

# compute and average area and volume per lipid:
variable	lipArea equal lx*ly/(${nLips}/2)
variable	lipArea equal lx*ly/(128/2)
fix		lipArea lip ave/time ${Ne} ${Nthe_e} ${Nthe} v_lipArea
fix		lipArea lip ave/time 2 ${Nthe_e} ${Nthe} v_lipArea
fix		lipArea lip ave/time 2 2500 ${Nthe} v_lipArea
fix		lipArea lip ave/time 2 2500 5000 v_lipArea
variable	lipVol equal (vol-(${nWats}*${watVol}))/${nLips}
variable	lipVol equal (vol-(4232*${watVol}))/${nLips}
variable	lipVol equal (vol-(4232*30))/${nLips}
variable	lipVol equal (vol-(4232*30))/128
fix		lipVol lip ave/time ${Ne} ${Nthe_e} ${Nthe} v_lipVol
fix		lipVol lip ave/time 2 ${Nthe_e} ${Nthe} v_lipVol
fix		lipVol lip ave/time 2 2500 ${Nthe} v_lipVol
fix		lipVol lip ave/time 2 2500 5000 v_lipVol

# compute and average pressure:
variable	P equal press
fix 		P all ave/time ${Ne} ${Nthe_e} ${Nthe} v_P
fix 		P all ave/time 2 ${Nthe_e} ${Nthe} v_P
fix 		P all ave/time 2 2500 ${Nthe} v_P
fix 		P all ave/time 2 2500 5000 v_P

# compute and average total (translational + rotational) temperature:
compute 	tempTot all temp/sphere dof all
fix 		tempTot all ave/time ${Ne} ${Nthe_e} ${Nthe} c_tempTot
fix 		tempTot all ave/time 2 ${Nthe_e} ${Nthe} c_tempTot
fix 		tempTot all ave/time 2 2500 ${Nthe} c_tempTot
fix 		tempTot all ave/time 2 2500 5000 c_tempTot
#compute_modify  tempTot extra 3 # default -> no effect

# compute and average rotational temperature:
compute 	tempRot all temp/sphere dof rotate
fix 		tempRot all ave/time ${Ne} ${Nthe_e} ${Nthe} c_tempRot
fix 		tempRot all ave/time 2 ${Nthe_e} ${Nthe} c_tempRot
fix 		tempRot all ave/time 2 2500 ${Nthe} c_tempRot
fix 		tempRot all ave/time 2 2500 5000 c_tempRot

thermo_style custom step press f_P temp f_tempTot f_tempRot f_lipArea f_lipVol
thermo		${Nthe}
thermo		5000

# compute and average surface tension (gamma) per monolayer:
variable	gamma equal (0.5*lz*(pzz-0.5*(pxx+pyy))/3)*${atmA__in__mN_m}
variable	gamma equal (0.5*lz*(pzz-0.5*(pxx+pyy))/3)*0.010130000000000000115
fix	gamma all ave/time ${Ne} ${Nthe_e} ${Nthe} v_gamma file gamma.dat
fix	gamma all ave/time 2 ${Nthe_e} ${Nthe} v_gamma file gamma.dat
fix	gamma all ave/time 2 2500 ${Nthe} v_gamma file gamma.dat
fix	gamma all ave/time 2 2500 5000 v_gamma file gamma.dat

# compute and average interface area (bilayer assumed parallel to xy plane):
variable	xyArea equal lx*ly
fix 		xyArea all ave/time 1 1 ${Ne} v_xyArea file xyArea.dat
fix 		xyArea all ave/time 1 1 2 v_xyArea file xyArea.dat

# compute and average box volume:
variable	boxVol equal vol
fix 		boxVol all ave/time 1 1 ${Ne} v_boxVol file boxVol.dat
fix 		boxVol all ave/time 1 1 2 v_boxVol file boxVol.dat

run		${Neqnvt}
run		5000
WARNING: Inconsistent image flags (../domain.cpp:594)
Memory usage per processor = 5.5106 Mbytes
Step Press P Temp tempTot tempRot lipArea lipVol 
       0    8307.8375            0            0            0            0            0            0 
    5000    185.70568    336.00095    305.85537    302.28835    302.32766    72.349569    1306.1622 
Loop time of 93.3849 on 4 procs (4 MPI x 1 OpenMP) for 5000 steps with 6152 atoms

Pair  time (%) = 78.7242 (84.3008)
Bond  time (%) = 0.378947 (0.405791)
Neigh time (%) = 7.51932 (8.05197)
Comm  time (%) = 4.17669 (4.47256)
Outpt time (%) = 4.49419e-05 (4.81255e-05)
Other time (%) = 2.58565 (2.76881)

Nlocal:    1538 ave 1556 max 1517 min
Histogram: 1 0 0 0 0 2 0 0 0 1
Nghost:    6197.75 ave 6230 max 6177 min
Histogram: 1 0 1 1 0 0 0 0 0 1
Neighs:    168706 ave 171826 max 164688 min
Histogram: 1 0 0 0 0 1 1 0 0 1

Total # of neighbors = 674825
Ave neighs/atom = 109.692
Ave special neighs/atom = 0.582575
Neighbor list builds = 1013
Dangerous builds = 0

fix		baro all press/berendsen aniso 1 1 1000 couple xy modulus 21740

run		${Neqnpt}
run		50000
WARNING: Inconsistent image flags (../domain.cpp:594)
Memory usage per processor = 5.5106 Mbytes
Step Press P Temp tempTot tempRot lipArea lipVol 
    5000    185.70568    336.00095    305.85537    302.28835    302.32766    72.349569    1306.1622 
   10000    50.902712     5.632395    302.48085    302.84803    303.13295    73.282367    1329.9514 
   15000   -94.197189  -0.84909878    301.94148     302.8648    303.37518    73.776219    1326.7294 
   20000    13.480506    2.7244078     304.8477    303.33918     303.2262    73.936691    1332.6248 
   25000   -16.575393   0.54449315    296.89581    302.88734    302.60418    73.989674      1326.67 
   30000  -0.11046333   0.55038185    295.73646    303.07327    303.23265    73.478167    1324.2105 
   35000    52.134739  -0.56623813    304.75985    303.40382    303.36273    73.172626    1323.2386 
   40000   -52.884452    2.8752128    303.95029    302.63389    302.50343    72.963407    1326.2349 
   45000    38.776766    2.2088873    302.89083    302.63919      302.516     73.11237    1325.7646 
   50000    93.197219    1.0008627    302.47219    303.11912    303.14454    73.206838    1327.8331 
   55000   -93.458193   -1.0457088    296.35316    302.67796    303.08792    73.264245    1325.3858 
Loop time of 932.291 on 4 procs (4 MPI x 1 OpenMP) for 50000 steps with 6152 atoms

Pair  time (%) = 785.277 (84.2309)
Bond  time (%) = 4.21546 (0.452161)
Neigh time (%) = 75.1811 (8.06413)
Comm  time (%) = 39.922 (4.28213)
Outpt time (%) = 0.0871151 (0.00934419)
Other time (%) = 27.6082 (2.96133)

Nlocal:    1538 ave 1562 max 1506 min
Histogram: 1 0 0 0 1 0 0 0 1 1
Nghost:    6172.5 ave 6199 max 6132 min
Histogram: 1 0 0 0 0 0 1 1 0 1
Neighs:    168309 ave 171464 max 163114 min
Histogram: 1 0 0 0 0 0 0 2 0 1

Total # of neighbors = 673235
Ave neighs/atom = 109.434
Ave special neighs/atom = 0.582575
Neighbor list builds = 10164
Dangerous builds = 0

fix 	numDensLip lip ave/spatial ${Ne} ${Nr} ${Nf} z center ${Dz} 		density/number units box file numDensLip.zProfile
fix 	numDensLip lip ave/spatial 2 ${Nr} ${Nf} z center ${Dz} 		density/number units box file numDensLip.zProfile
fix 	numDensLip lip ave/spatial 2 50000 ${Nf} z center ${Dz} 		density/number units box file numDensLip.zProfile
fix 	numDensLip lip ave/spatial 2 50000 155000 z center ${Dz} 		density/number units box file numDensLip.zProfile
fix 	numDensLip lip ave/spatial 2 50000 155000 z center 1 		density/number units box file numDensLip.zProfile
fix 	numDensWat wat ave/spatial ${Ne} ${Nr} ${Nf} z center ${Dz} 		density/number units box file numDensWat.zProfile
fix 	numDensWat wat ave/spatial 2 ${Nr} ${Nf} z center ${Dz} 		density/number units box file numDensWat.zProfile
fix 	numDensWat wat ave/spatial 2 50000 ${Nf} z center ${Dz} 		density/number units box file numDensWat.zProfile
fix 	numDensWat wat ave/spatial 2 50000 155000 z center ${Dz} 		density/number units box file numDensWat.zProfile
fix 	numDensWat wat ave/spatial 2 50000 155000 z center 1 		density/number units box file numDensWat.zProfile
fix 	numDensChol chol ave/spatial ${Ne} ${Nr} ${Nf} z center ${Dz} 		density/number units box file numDensChol.zProfile
fix 	numDensChol chol ave/spatial 2 ${Nr} ${Nf} z center ${Dz} 		density/number units box file numDensChol.zProfile
fix 	numDensChol chol ave/spatial 2 50000 ${Nf} z center ${Dz} 		density/number units box file numDensChol.zProfile
fix 	numDensChol chol ave/spatial 2 50000 155000 z center ${Dz} 		density/number units box file numDensChol.zProfile
fix 	numDensChol chol ave/spatial 2 50000 155000 z center 1 		density/number units box file numDensChol.zProfile
fix 	numDensPhos phos ave/spatial ${Ne} ${Nr} ${Nf} z center ${Dz} 		density/number units box file numDensPhos.zProfile
fix 	numDensPhos phos ave/spatial 2 ${Nr} ${Nf} z center ${Dz} 		density/number units box file numDensPhos.zProfile
fix 	numDensPhos phos ave/spatial 2 50000 ${Nf} z center ${Dz} 		density/number units box file numDensPhos.zProfile
fix 	numDensPhos phos ave/spatial 2 50000 155000 z center ${Dz} 		density/number units box file numDensPhos.zProfile
fix 	numDensPhos phos ave/spatial 2 50000 155000 z center 1 		density/number units box file numDensPhos.zProfile
fix 	numDensGly gly ave/spatial ${Ne} ${Nr} ${Nf} z center ${Dz} 		density/number units box file numDensGly.zProfile
fix 	numDensGly gly ave/spatial 2 ${Nr} ${Nf} z center ${Dz} 		density/number units box file numDensGly.zProfile
fix 	numDensGly gly ave/spatial 2 50000 ${Nf} z center ${Dz} 		density/number units box file numDensGly.zProfile
fix 	numDensGly gly ave/spatial 2 50000 155000 z center ${Dz} 		density/number units box file numDensGly.zProfile
fix 	numDensGly gly ave/spatial 2 50000 155000 z center 1 		density/number units box file numDensGly.zProfile
fix 	numDensEst est ave/spatial ${Ne} ${Nr} ${Nf} z center ${Dz} 		density/number units box file numDensEst.zProfile
fix 	numDensEst est ave/spatial 2 ${Nr} ${Nf} z center ${Dz} 		density/number units box file numDensEst.zProfile
fix 	numDensEst est ave/spatial 2 50000 ${Nf} z center ${Dz} 		density/number units box file numDensEst.zProfile
fix 	numDensEst est ave/spatial 2 50000 155000 z center ${Dz} 		density/number units box file numDensEst.zProfile
fix 	numDensEst est ave/spatial 2 50000 155000 z center 1 		density/number units box file numDensEst.zProfile
fix 	numDensTail tail ave/spatial ${Ne} ${Nr} ${Nf} z center ${Dz} 		density/number units box file numDensTail.zProfile
fix 	numDensTail tail ave/spatial 2 ${Nr} ${Nf} z center ${Dz} 		density/number units box file numDensTail.zProfile
fix 	numDensTail tail ave/spatial 2 50000 ${Nf} z center ${Dz} 		density/number units box file numDensTail.zProfile
fix 	numDensTail tail ave/spatial 2 50000 155000 z center ${Dz} 		density/number units box file numDensTail.zProfile
fix 	numDensTail tail ave/spatial 2 50000 155000 z center 1 		density/number units box file numDensTail.zProfile

compute		stpa all stress/atom
fix	stress all ave/spatial ${Ne} ${Nr} ${Nf} z center ${Dz} 		c_stpa[1] c_stpa[2] c_stpa[3] c_stpa[4] c_stpa[5] c_stpa[6] 		units box file stress.zProfile
fix	stress all ave/spatial 2 ${Nr} ${Nf} z center ${Dz} 		c_stpa[1] c_stpa[2] c_stpa[3] c_stpa[4] c_stpa[5] c_stpa[6] 		units box file stress.zProfile
fix	stress all ave/spatial 2 50000 ${Nf} z center ${Dz} 		c_stpa[1] c_stpa[2] c_stpa[3] c_stpa[4] c_stpa[5] c_stpa[6] 		units box file stress.zProfile
fix	stress all ave/spatial 2 50000 155000 z center ${Dz} 		c_stpa[1] c_stpa[2] c_stpa[3] c_stpa[4] c_stpa[5] c_stpa[6] 		units box file stress.zProfile
fix	stress all ave/spatial 2 50000 155000 z center 1 		c_stpa[1] c_stpa[2] c_stpa[3] c_stpa[4] c_stpa[5] c_stpa[6] 		units box file stress.zProfile

compute		stke all stress/atom ke
fix	stressKinEn all ave/spatial ${Ne} ${Nr} ${Nf} z center ${Dz} 		c_stke[1] c_stke[2] c_stke[3] c_stke[4] c_stke[5] c_stke[6] 		units box file stressKinEn.zProfile
fix	stressKinEn all ave/spatial 2 ${Nr} ${Nf} z center ${Dz} 		c_stke[1] c_stke[2] c_stke[3] c_stke[4] c_stke[5] c_stke[6] 		units box file stressKinEn.zProfile
fix	stressKinEn all ave/spatial 2 50000 ${Nf} z center ${Dz} 		c_stke[1] c_stke[2] c_stke[3] c_stke[4] c_stke[5] c_stke[6] 		units box file stressKinEn.zProfile
fix	stressKinEn all ave/spatial 2 50000 155000 z center ${Dz} 		c_stke[1] c_stke[2] c_stke[3] c_stke[4] c_stke[5] c_stke[6] 		units box file stressKinEn.zProfile
fix	stressKinEn all ave/spatial 2 50000 155000 z center 1 		c_stke[1] c_stke[2] c_stke[3] c_stke[4] c_stke[5] c_stke[6] 		units box file stressKinEn.zProfile

compute		stnb all stress/atom pair
fix	stressNonBond all ave/spatial ${Ne} ${Nr} ${Nf} z center ${Dz} 		c_stnb[1] c_stnb[2] c_stnb[3] c_stnb[4] c_stnb[5] c_stnb[6] 		units box file stressNonBond.zProfile
fix	stressNonBond all ave/spatial 2 ${Nr} ${Nf} z center ${Dz} 		c_stnb[1] c_stnb[2] c_stnb[3] c_stnb[4] c_stnb[5] c_stnb[6] 		units box file stressNonBond.zProfile
fix	stressNonBond all ave/spatial 2 50000 ${Nf} z center ${Dz} 		c_stnb[1] c_stnb[2] c_stnb[3] c_stnb[4] c_stnb[5] c_stnb[6] 		units box file stressNonBond.zProfile
fix	stressNonBond all ave/spatial 2 50000 155000 z center ${Dz} 		c_stnb[1] c_stnb[2] c_stnb[3] c_stnb[4] c_stnb[5] c_stnb[6] 		units box file stressNonBond.zProfile
fix	stressNonBond all ave/spatial 2 50000 155000 z center 1 		c_stnb[1] c_stnb[2] c_stnb[3] c_stnb[4] c_stnb[5] c_stnb[6] 		units box file stressNonBond.zProfile

compute		stb all stress/atom bond
fix	stressBond all ave/spatial ${Ne} ${Nr} ${Nf} z center ${Dz} 		c_stb[1] c_stb[2] c_stb[3] c_stb[4] c_stb[5] c_stb[6] 		units box file stressBond.zProfile
fix	stressBond all ave/spatial 2 ${Nr} ${Nf} z center ${Dz} 		c_stb[1] c_stb[2] c_stb[3] c_stb[4] c_stb[5] c_stb[6] 		units box file stressBond.zProfile
fix	stressBond all ave/spatial 2 50000 ${Nf} z center ${Dz} 		c_stb[1] c_stb[2] c_stb[3] c_stb[4] c_stb[5] c_stb[6] 		units box file stressBond.zProfile
fix	stressBond all ave/spatial 2 50000 155000 z center ${Dz} 		c_stb[1] c_stb[2] c_stb[3] c_stb[4] c_stb[5] c_stb[6] 		units box file stressBond.zProfile
fix	stressBond all ave/spatial 2 50000 155000 z center 1 		c_stb[1] c_stb[2] c_stb[3] c_stb[4] c_stb[5] c_stb[6] 		units box file stressBond.zProfile

compute		sta all stress/atom angle
fix	stressAngle all ave/spatial ${Ne} ${Nr} ${Nf} z center ${Dz} 		c_sta[1] c_sta[2] c_sta[3] c_sta[4] c_sta[5] c_sta[6] 		units box file stressAngle.zProfile
fix	stressAngle all ave/spatial 2 ${Nr} ${Nf} z center ${Dz} 		c_sta[1] c_sta[2] c_sta[3] c_sta[4] c_sta[5] c_sta[6] 		units box file stressAngle.zProfile
fix	stressAngle all ave/spatial 2 50000 ${Nf} z center ${Dz} 		c_sta[1] c_sta[2] c_sta[3] c_sta[4] c_sta[5] c_sta[6] 		units box file stressAngle.zProfile
fix	stressAngle all ave/spatial 2 50000 155000 z center ${Dz} 		c_sta[1] c_sta[2] c_sta[3] c_sta[4] c_sta[5] c_sta[6] 		units box file stressAngle.zProfile
fix	stressAngle all ave/spatial 2 50000 155000 z center 1 		c_sta[1] c_sta[2] c_sta[3] c_sta[4] c_sta[5] c_sta[6] 		units box file stressAngle.zProfile

compute		stv all stress/atom virial # check this is redundant
fix	stressVir all ave/spatial ${Ne} ${Nr} ${Nf} z center ${Dz} 		c_stv[1] c_stv[2] c_stv[3] c_stv[4] c_stv[5] c_stv[6] 		units box file stressVir.zProfile
fix	stressVir all ave/spatial 2 ${Nr} ${Nf} z center ${Dz} 		c_stv[1] c_stv[2] c_stv[3] c_stv[4] c_stv[5] c_stv[6] 		units box file stressVir.zProfile
fix	stressVir all ave/spatial 2 50000 ${Nf} z center ${Dz} 		c_stv[1] c_stv[2] c_stv[3] c_stv[4] c_stv[5] c_stv[6] 		units box file stressVir.zProfile
fix	stressVir all ave/spatial 2 50000 155000 z center ${Dz} 		c_stv[1] c_stv[2] c_stv[3] c_stv[4] c_stv[5] c_stv[6] 		units box file stressVir.zProfile
fix	stressVir all ave/spatial 2 50000 155000 z center 1 		c_stv[1] c_stv[2] c_stv[3] c_stv[4] c_stv[5] c_stv[6] 		units box file stressVir.zProfile

compute		chgHead head property/atom q
fix 	qDensHead head ave/spatial ${Ne} ${Nr} ${Nf} z center ${Dz} 		c_chgHead units box file qDensHead.zProfile
fix 	qDensHead head ave/spatial 2 ${Nr} ${Nf} z center ${Dz} 		c_chgHead units box file qDensHead.zProfile
fix 	qDensHead head ave/spatial 2 50000 ${Nf} z center ${Dz} 		c_chgHead units box file qDensHead.zProfile
fix 	qDensHead head ave/spatial 2 50000 155000 z center ${Dz} 		c_chgHead units box file qDensHead.zProfile
fix 	qDensHead head ave/spatial 2 50000 155000 z center 1 		c_chgHead units box file qDensHead.zProfile

compute		dipGly gly property/atom muz
fix 	muzGly gly ave/spatial ${Ne} ${Nr} ${Nf} z center ${Dz} 		c_dipGly units box file muzGly.zProfile
fix 	muzGly gly ave/spatial 2 ${Nr} ${Nf} z center ${Dz} 		c_dipGly units box file muzGly.zProfile
fix 	muzGly gly ave/spatial 2 50000 ${Nf} z center ${Dz} 		c_dipGly units box file muzGly.zProfile
fix 	muzGly gly ave/spatial 2 50000 155000 z center ${Dz} 		c_dipGly units box file muzGly.zProfile
fix 	muzGly gly ave/spatial 2 50000 155000 z center 1 		c_dipGly units box file muzGly.zProfile

compute		dipEst est property/atom muz
fix 	muzEst est ave/spatial ${Ne} ${Nr} ${Nf} z center ${Dz} 		c_dipEst units box file muzEst.zProfile
fix 	muzEst est ave/spatial 2 ${Nr} ${Nf} z center ${Dz} 		c_dipEst units box file muzEst.zProfile
fix 	muzEst est ave/spatial 2 50000 ${Nf} z center ${Dz} 		c_dipEst units box file muzEst.zProfile
fix 	muzEst est ave/spatial 2 50000 155000 z center ${Dz} 		c_dipEst units box file muzEst.zProfile
fix 	muzEst est ave/spatial 2 50000 155000 z center 1 		c_dipEst units box file muzEst.zProfile

compute		dipWat wat property/atom muz
fix 	muzWat wat ave/spatial ${Ne} ${Nr} ${Nf} z center ${Dz} 		c_dipWat units box file muzWat.zProfile
fix 	muzWat wat ave/spatial 2 ${Nr} ${Nf} z center ${Dz} 		c_dipWat units box file muzWat.zProfile
fix 	muzWat wat ave/spatial 2 50000 ${Nf} z center ${Dz} 		c_dipWat units box file muzWat.zProfile
fix 	muzWat wat ave/spatial 2 50000 155000 z center ${Dz} 		c_dipWat units box file muzWat.zProfile
fix 	muzWat wat ave/spatial 2 50000 155000 z center 1 		c_dipWat units box file muzWat.zProfile

compute		msd gly msd com yes
fix 		msd gly ave/time 1 1 ${Ne} c_msd[4] file gly.msd
fix 		msd gly ave/time 1 1 2 c_msd[4] file gly.msd

run		${Nprod}
run		100000
WARNING: Inconsistent image flags (../domain.cpp:594)
Memory usage per processor = 8.60321 Mbytes
Step Press P Temp tempTot tempRot lipArea lipVol 
   55000   -90.313546   -1.0457088    296.35316    302.67796    303.08792    73.264245    1325.3858 
   60000     79.90172    1.8206573    299.67396     302.7702    302.77677    73.794042    1324.1043 
   65000    84.975675    1.9084749     304.9537    302.87105    302.95054    73.978799    1324.2954 
   70000   -46.190012  -0.17299031    305.22713    303.16647    303.02669    73.290876    1327.9537 
   75000    1.9121997   0.68298444     300.5755    302.71615    302.86564    73.310517    1323.6051 
   80000    55.874486    1.0277709    299.70283    302.99528     303.5823    73.332792    1325.9838 
   85000   -119.41904    2.3846442     300.5842    302.95365    302.53884    73.070105    1325.7127 
   90000   -33.812558  -0.90112466    303.90762      302.814    303.20905    72.595935    1322.2926 
   95000    141.69097    1.5537022    301.34212    303.46402    303.37456    72.034745    1322.4089 
  100000   -12.182219  -0.37036838    299.58436    303.19428    303.26495    71.345069    1324.4635 
  105000    24.775877    2.5355662    307.59552    303.03811     303.2993    71.004498    1322.0891 
  110000    28.425541 -0.059391289    301.46312     303.0339    302.78721    70.554822    1322.2872 
  115000   -66.187299    1.7213532    303.68226    303.42182    303.65036    70.453472    1323.0099 
  120000     27.75823    1.9726662    306.49622    302.94773    303.28928    70.608114    1326.4643 
  125000      29.2823    -0.687549    301.42818    303.00441    303.36804    70.792896     1323.237 
  130000     67.63166    1.3382692    304.31936    303.30416    303.56175    70.535356     1322.648 
  135000     45.48311    1.6601988      301.422    303.42488    303.42412    70.726911    1321.9576 
  140000   -68.213309    1.3762663     299.4976    302.83527    303.15829     70.22364    1323.9585 
  145000    56.415549     1.494035    304.39556      302.768    302.90013     70.52284    1325.5767 
  150000     20.83611   0.15826375    304.78324    303.15717    303.42812    70.705851    1324.3199 
  155000    20.816662  -0.64968368    297.93879    303.11435    303.32126    70.717922    1322.0648 
Loop time of 2323.65 on 4 procs (4 MPI x 1 OpenMP) for 100000 steps with 6152 atoms

Pair  time (%) = 1766.9 (76.0398)
Bond  time (%) = 35.3374 (1.52077)
Neigh time (%) = 147.825 (6.36174)
Comm  time (%) = 105.159 (4.52558)
Outpt time (%) = 0.175481 (0.00755193)
Other time (%) = 268.256 (11.5446)

Nlocal:    1538 ave 1602 max 1516 min
Histogram: 3 0 0 0 0 0 0 0 0 1
Nghost:    6227.25 ave 6252 max 6193 min
Histogram: 1 0 0 0 1 0 0 0 1 1
Neighs:    169594 ave 180634 max 165081 min
Histogram: 2 1 0 0 0 0 0 0 0 1

Total # of neighbors = 678374
Ave neighs/atom = 110.269
Ave special neighs/atom = 0.582575
Neighbor list builds = 20331
Dangerous builds = 0


