LAMMPS (14 Aug 2011)
units		real
atom_style	hybrid angle dipole sphere 
read_data 	data.1058dope16000wat
  3 = max bonds/atom
  2 = max angles/atom
  orthogonal box = (-61.5 -61.5 -61.5) to (61.5 61.5 61.5)
  2 by 2 by 2 processor grid
  31870 atoms
  17986 bonds
  13754 angles
  4 = max # of 1-2 neighbors
  8 = max # of 1-3 neighbors
  26 = max # of 1-4 neighbors
  20 = max # of special neighbors
include 	forcefield.dope
pair_style dipole/sf 12
bond_style hybrid harmonic dipole
angle_style cosine/squared

#    type  mass [grams/mol]
mass    1   40.000 # water
mass    2   42.000 # amine
mass    3   90.000 # phosphate
mass    4   62.000 # glycerol
mass    5   62.000 # ester
mass    6   42.000 # tail

# LJ coeffs: iType jType epsilon_ij [kcal/mol] sigma_ij [angstrom]
pair_coeff    1    1	  0.466  3.000 # water-water
pair_coeff    1    2	  0.671  3.750 # water-amine
pair_coeff    1    3	  1.054  4.100 # water-phosphate
pair_coeff    1    4	  0.574  3.800 # water-glycerol
pair_coeff    1    5	  0.765  3.800 # water-ester
pair_coeff    1    6	  0.447  3.750 # water-tail
pair_coeff    2    2	  0.837  4.500 # amine-amine
pair_coeff    2    3	  2.738  4.850 # amine-phosphate
pair_coeff    2    4	  1.341  4.550 # amine-glycerol
pair_coeff    2    5	  2.236  4.550 # amine-ester
pair_coeff    2    6	  0.837  4.500 # amine-tail
pair_coeff    3    3	  1.434  5.200 # phosphate-phosphate
pair_coeff    3    4	  1.171  4.900 # phosphate-glycerol
pair_coeff    3    5	  1.171  4.900 # phosphate-ester
pair_coeff    3    6	  1.095  4.850 # phosphate-tail
pair_coeff    4    4	  0.956  4.600 # glycerol-glycerol
pair_coeff    4    5	  0.956  4.600 # glycerol-ester
pair_coeff    4    6	  0.894  4.550 # glycerol-tail
pair_coeff    5    5	  0.956  4.600 # ester-ester 
pair_coeff    5    6	  0.894  4.550 # ester-tail
pair_coeff    6    6	  0.837  4.500 # tail-tail

# harmonic bond coeffs:  K [kcal/(mol*angstrom^2)] r0 [angstrom] 
bond_coeff    1  harmonic  1.506  4.365 # amine--phosphate
bond_coeff    2  harmonic  1.506  4.410 # phosphate--glycerol
bond_coeff    3  harmonic  1.506  4.140 # glycerol--ester
bond_coeff    4  harmonic  1.506  4.095 # ester--tail
bond_coeff    5  harmonic  1.506  4.050 # tail--tail
# dipole bond coeffs:  K [kcal/mol] gamma0 [degrees] 
bond_coeff    6  dipole    1.195  0.000 # glycerolDipole-phosphate, esterDipole-tail

# angle coeffs: K [kcal/mol] theta0 [degrees]
angle_coeff    1  3.5851  115.00 # amine-phosphate-glycerol
angle_coeff    2  3.5851  160.00 # phosphate-glycerol-ester
angle_coeff    3  3.5851  180.00 # glycerol-ester-tail, tail-tail-tail (saturated)
angle_coeff    4  3.5851  120.00 # tail-tail-tail (unsaturated)

special_bonds	lj/coul 0.0 1.0 1.0 
  4 = max # of 1-2 neighbors
  3 = max # of special neighbors
velocity	all create 0.0 87287 

neighbor	1 bin
neigh_modify	delay 2

group		lipids type 2 3 4 5 6
15870 atoms in group lipids
group		water type 1
16000 atoms in group water

fix		integrate all nve/sphere update dipole
fix 		tempLip lipids langevin 303.15 303.15 100.0 48279 omega yes
fix 		tempWat water langevin 303.15 303.15 100.0 48279 omega yes
fix             removeMomentum all momentum 1 linear 1 1 1

compute		erot all erotate/sphere
thermo_style	custom step etotal pe epair c_erot press temp
thermo		100
dump		trj all custom 1000 dump.trj id type mol x y z mux muy muz
dump_modify	trj sort id

timestep	1
run		1000
Memory usage per processor = 8.14786 Mbytes
Step TotEng PotEng E_pair erot Press Temp 
       0   -185032.05   -185032.05   -203723.41            0   -648.20246            0 
     100   -167129.22   -193614.42   -211377.09    25837.963   -900.97382    278.80496 
     200   -162605.08   -190257.36   -207908.15    27730.704    -341.7629    291.09054 
     300   -160472.59   -188486.38   -206496.89    28610.978    -189.4642     294.8961 
     400   -159356.29    -187741.1   -205904.84    28570.135   -190.17102    298.80183 
     500   -158720.92   -187522.69   -205645.11     28662.06   -179.12841    303.19108 
     600   -158459.28   -187127.57   -205253.54    28849.841   -134.87225      301.786 
     700   -158281.29   -187028.89    -205168.4    28620.266   -177.21723     302.6208 
     800   -158353.06   -187087.37   -205216.99    28814.533   -141.56004    302.48087 
     900   -158322.42    -187109.9   -205257.41    28525.968   -141.73929    303.04068 
    1000   -158482.22   -187080.25   -205221.03    28911.483   -132.77358    301.04634 
Loop time of 34.2828 on 8 procs for 1000 steps with 31870 atoms

Pair  time (%) = 25.0385 (73.035)
Bond  time (%) = 0.413437 (1.20596)
Neigh time (%) = 0.384625 (1.12192)
Comm  time (%) = 6.67305 (19.4647)
Outpt time (%) = 0.147909 (0.431437)
Other time (%) = 1.62533 (4.74094)

Nlocal:    3983.75 ave 4047 max 3947 min
Histogram: 1 1 1 2 2 0 0 0 0 1
Nghost:    7502.75 ave 7554 max 7465 min
Histogram: 2 0 2 1 0 1 0 0 0 2
Neighs:    311048 ave 324279 max 306719 min
Histogram: 3 1 3 0 0 0 0 0 0 1

Total # of neighbors = 2488384
Ave neighs/atom = 78.0792
Ave special neighs/atom = 0.929526
Neighbor list builds = 21
Dangerous builds = 0

timestep	3
run		1000
Memory usage per processor = 8.14786 Mbytes
Step TotEng PotEng E_pair erot Press Temp 
    1000   -158482.22   -187080.25   -205221.03    28911.483   -132.77358    301.04634 
    1100   -158315.73   -187045.68   -205167.07    28603.492    -140.3903    302.43505 
    1200   -158156.52   -186973.45   -205127.38    28627.383   -71.377768    303.35073 
    1300    -158052.6   -187037.64   -205235.31    28780.941   -125.18906    305.12036 
    1400    -158417.5   -187060.58   -205209.94    28801.066   -132.41236    301.52065 
    1500    -158383.4   -187089.74   -205200.41    28790.432   -134.16202    302.18645 
    1600   -158289.01   -187157.11   -205229.33    28847.819   -143.96212    303.88934 
    1700   -158319.77   -187032.15   -205171.36    28791.311    -147.1502    302.25011 
    1800   -157868.61   -187016.71   -205156.04    28768.712   -118.89758    306.83683 
    1900   -158471.95   -187201.87   -205333.39    28784.528   -164.42041    302.43472 
    2000   -158332.99   -186919.28   -205063.66    28750.458   -141.04892    300.92278 
Loop time of 35.0415 on 8 procs for 1000 steps with 31870 atoms

Pair  time (%) = 23.9854 (68.4486)
Bond  time (%) = 0.385783 (1.10093)
Neigh time (%) = 1.11399 (3.17905)
Comm  time (%) = 7.76171 (22.1501)
Outpt time (%) = 0.147729 (0.421583)
Other time (%) = 1.64686 (4.69974)

Nlocal:    3983.75 ave 4051 max 3944 min
Histogram: 2 1 1 0 1 2 0 0 0 1
Nghost:    7495.62 ave 7577 max 7430 min
Histogram: 1 0 2 1 2 0 0 1 0 1
Neighs:    310956 ave 324258 max 304339 min
Histogram: 1 2 2 0 2 0 0 0 0 1

Total # of neighbors = 2487645
Ave neighs/atom = 78.056
Ave special neighs/atom = 0.929526
Neighbor list builds = 64
Dangerous builds = 0

timestep	15
run		1000
Memory usage per processor = 8.14786 Mbytes
Step TotEng PotEng E_pair erot Press Temp 
    2000   -158332.99   -186919.28   -205063.66    28750.458   -141.04892    300.92278 
    2100   -157984.82   -186888.26   -204925.65    28803.754   -156.11336    304.26133 
    2200    -158271.4   -186986.43      -205098    28787.475   -153.55638    302.27806 
    2300   -158188.08   -186995.51   -204998.18    28924.229   -90.285739    303.25073 
    2400   -158348.63   -187154.86   -205119.45    28902.276   -91.985484    303.23799 
    2500   -158584.96   -187577.47   -205444.18     28741.97   -123.56326    305.19892 
    2600   -158555.83    -187146.4   -205088.35    28749.874   -60.596095    300.96778 
    2700   -158236.51   -187331.45    -205382.9    28613.191   -137.95577     306.2773 
    2800   -158978.39   -187741.55    -205634.4    28825.581   -109.85919    302.78469 
    2900   -158720.42   -187607.84   -205486.41     28826.08   -125.40383    304.09278 
    3000   -158721.02   -187561.27   -205356.55     28910.15   -156.60811    303.59609 
Loop time of 40.7042 on 8 procs for 1000 steps with 31870 atoms

Pair  time (%) = 24.6282 (60.5054)
Bond  time (%) = 0.391907 (0.962818)
Neigh time (%) = 5.18585 (12.7403)
Comm  time (%) = 8.71954 (21.4217)
Outpt time (%) = 0.147442 (0.362229)
Other time (%) = 1.63122 (4.00751)

Nlocal:    3983.75 ave 4071 max 3944 min
Histogram: 3 2 0 1 0 0 1 0 0 1
Nghost:    7498 ave 7543 max 7444 min
Histogram: 1 0 0 2 0 1 2 1 0 1
Neighs:    311176 ave 327183 max 304034 min
Histogram: 1 3 1 1 0 1 0 0 0 1

Total # of neighbors = 2489412
Ave neighs/atom = 78.1115
Ave special neighs/atom = 0.929526
Neighbor list builds = 290
Dangerous builds = 0

fix		baro all press/berendsen aniso 1 1 500 modulus 22222
run		5000
Memory usage per processor = 8.14786 Mbytes
Step TotEng PotEng E_pair erot Press Temp 
    3000   -158721.02   -187561.27   -205356.55     28910.15   -156.60811    303.59609 
    3100   -159859.68   -188517.82   -206532.72     28652.19  -0.73583027    301.67909 
    3200   -159817.22    -188656.3   -206577.37     28809.67    28.036071    303.58381 
    3300   -159655.05   -188547.53   -206675.01    28717.147    29.075142    304.14588 
    3400   -160170.79   -189055.39   -207016.97    28582.483   -46.476804     304.0631 
    3500   -159860.12   -188666.66   -206579.82    28798.015   -1.5424081    303.24137 
    3600   -160356.21   -189205.35   -207298.01    28734.848   -33.695554    303.68976 
    3700   -160562.76    -189271.4    -207317.1    28886.806     10.68358    302.21072 
    3800   -160292.18   -189122.79   -207259.51    28802.201    -13.85703    303.49467 
    3900   -160323.95   -189186.87   -207171.97    28694.756   -2.3145207    303.83477 
    4000   -160496.01   -189226.17   -207393.19    28796.918    13.447678    302.43723 
    4100   -160587.18   -189374.78   -207538.81    28712.773   -13.388985    303.04194 
    4200   -160716.03   -189378.84   -207534.17    28852.887   -18.733762    301.72824 
    4300   -160664.24   -189556.59   -207583.17    28653.337   -17.336398    304.14455 
    4400   -160196.54   -188977.83   -207060.21    28573.476    17.494956    302.97553 
    4500   -160312.61   -189178.12   -207334.75    28703.179    20.327894    303.86212 
    4600   -160711.31   -189488.28   -207455.27    28793.396    13.749378    302.93002 
    4700   -160569.86   -189385.53   -207390.76    28762.122    18.149806    303.33735 
    4800   -160914.45   -189515.46   -207496.85    29000.728    24.692949    301.07766 
    4900   -160724.01   -189804.54   -207829.21    29122.341    10.265289    306.12565 
    5000   -161236.01      -189771   -207705.17    28734.457    1.5059651    300.38278 
    5100   -161027.91   -189604.62   -207769.24    28847.171   -14.652737    300.82183 
    5200    -161024.8   -189640.71   -207694.59    28950.998    8.2327118    301.23463 
    5300    -161077.7   -189812.63   -207830.15     28888.53    3.2830176    302.48745 
    5400   -160844.05   -189607.23   -207722.88    28799.804     40.93572    302.78482 
    5500   -161240.89   -190161.24   -208175.73    28760.605   -10.679464    304.43936 
    5600    -161156.5   -189904.31   -207902.57    28802.558    22.211866    302.62302 
    5700   -161267.69   -190026.83   -208192.57    28556.933    12.192539     302.7423 
    5800   -161408.68   -190169.45   -208125.52    28868.966   -21.268301    302.75955 
    5900   -161243.93   -190138.29   -208151.69    28867.132    4.0388421     304.1658 
    6000   -161433.52   -190377.92   -208344.56    28818.217    2.8613135    304.69251 
    6100   -161690.65    -190488.4   -208407.76    28849.092   -12.565289    303.14877 
    6200   -161274.22   -190268.11   -208201.33    29040.635    34.142638     305.2136 
    6300   -161873.61   -190317.34    -208233.1    28638.176     9.153935    299.42209 
    6400   -162043.66      -190596   -208577.66    28873.793   -5.0747407     300.5654 
    6500   -161731.15   -190415.83   -208463.01    29009.005   -1.1408593    301.95844 
    6600   -161473.61   -190354.02   -208219.46    28750.679   -1.0450416    304.01893 
    6700    -161592.9   -190439.19   -208382.35    29068.537    5.5552779     303.6598 
    6800   -161684.88   -190274.49   -208364.18    28829.968      10.0315    300.95765 
    6900   -161848.34   -190704.46    -208554.9    28867.129    29.309426    303.76331 
    7000   -162045.92   -190876.47   -208860.66    28838.429    10.840579    303.49412 
    7100   -162004.49   -190865.68   -208860.47    28841.655   -22.931278    303.81653 
    7200   -161779.23   -190473.04   -208558.19    28661.839   -7.3947275     302.0546 
    7300   -161963.31   -190810.98   -208569.45    28727.949    1.7344663    303.67421 
    7400   -161949.21   -190714.72   -208705.48    28904.082    13.217156    302.80938 
    7500   -161758.03   -190727.27   -208613.04    28754.402    -15.50731      304.954 
    7600   -162288.82   -190951.06   -208803.97    28720.741    11.795284    301.72227 
    7700   -162299.84   -190870.25   -208762.95    29014.936    5.0039617     300.7556 
    7800      -162395   -191014.93   -208941.01    28858.356    9.2227483    301.27693 
    7900    -161999.9   -190655.06   -208627.75    28770.919   -23.245275     301.6477 
    8000   -161905.05    -190711.7   -208835.19     28957.29    9.6311951    303.24254 
Loop time of 203.894 on 8 procs for 5000 steps with 31870 atoms

Pair  time (%) = 121.468 (59.5739)
Bond  time (%) = 2.05316 (1.00698)
Neigh time (%) = 26.2825 (12.8903)
Comm  time (%) = 44.6146 (21.8813)
Outpt time (%) = 0.737715 (0.361813)
Other time (%) = 8.73827 (4.2857)

Nlocal:    3983.75 ave 4082 max 3925 min
Histogram: 1 0 4 0 1 1 0 0 0 1
Nghost:    7548.38 ave 7632 max 7499 min
Histogram: 1 2 2 1 0 0 0 1 0 1
Neighs:    315051 ave 330625 max 306829 min
Histogram: 1 2 2 1 0 1 0 0 0 1

Total # of neighbors = 2520410
Ave neighs/atom = 79.0841
Ave special neighs/atom = 0.929526
Neighbor list builds = 1500
Dangerous builds = 0
