LAMMPS (14 Aug 2011)
units		real
atom_style	hybrid angle dipole sphere 
read_data 	data.128dopc4232wat
  3 = max bonds/atom
  2 = max angles/atom
  orthogonal box = (-34.0863 -34.0863 -31.5696) to (34.0863 34.0863 31.5696)
  2 by 2 by 2 processor grid
  6152 atoms
  2176 bonds
  1664 angles
  4 = max # of 1-2 neighbors
  8 = max # of 1-3 neighbors
  25 = max # of 1-4 neighbors
  19 = max # of special neighbors
include 	forcefield.dopc
pair_style dipole/sf 12
bond_style hybrid harmonic dipole
angle_style cosine/squared

#    type  mass [grams/mol]
mass    1   40.000 # water
mass    2   90.000 # choline
mass    3   90.000 # phosphate
mass    4   62.000 # glycerol
mass    5   62.000 # ester
mass    6   42.000 # tail

# LJ coeffs: iType jType epsilon_ij [kcal/mol] sigma_ij [angstrom]
pair_coeff    1    1	  0.466  3.000 # water-water
pair_coeff    1    2	  0.585  4.100 # water-choline
pair_coeff    1    3	  1.054  4.100 # water-phosphate
pair_coeff    1    4	  0.574  3.800 # water-glycerol
pair_coeff    1    5	  0.765  3.800 # water-ester
pair_coeff    1    6	  0.447  3.750 # water-tail
pair_coeff    2    2	  1.434  5.200 # choline-choline
pair_coeff    2    3	  1.434  5.200 # choline-phosphate
pair_coeff    2    4	  1.171  4.900 # choline-glycerol
pair_coeff    2    5	  1.171  4.900 # choline-ester
pair_coeff    2    6	  1.095  4.850 # choline-tail
pair_coeff    3    3	  1.434  5.200 # phosphate-phosphate
pair_coeff    3    4	  1.171  4.900 # phosphate-glycerol
pair_coeff    3    5	  1.171  4.900 # phosphate-ester
pair_coeff    3    6	  1.095  4.850 # phosphate-tail
pair_coeff    4    4	  0.956  4.600 # glycerol-glycerol
pair_coeff    4    5	  0.956  4.600 # glycerol-ester
pair_coeff    4    6	  0.894  4.550 # glycerol-tail
pair_coeff    5    5	  0.956  4.600 # ester-ester 
pair_coeff    5    6	  0.894  4.550 # ester-tail
pair_coeff    6    6	  0.837  4.500 # tail-tail

# harmonic bond coeffs:  K [kcal/(mol*angstrom^2)] r0 [angstrom] 
bond_coeff    1  harmonic  1.506  4.680 # choline--phosphate
bond_coeff    2  harmonic  1.506  4.410 # phosphate--glycerol
bond_coeff    3  harmonic  1.506  4.140 # glycerol--ester
bond_coeff    4  harmonic  1.506  4.095 # ester--tail
bond_coeff    5  harmonic  1.506  4.050 # tail--tail
# dipole bond coeffs:  K [kcal/mol] gamma0 [degrees] 
bond_coeff    6  dipole    1.195  0.000 # glycerolDipole-phosphate, esterDipole-tail

# angle coeffs: K [kcal/mol] theta0 [degrees]
angle_coeff    1  3.5851  115.00 # choline-phosphate-glycerol
angle_coeff    2  3.5851  160.00 # phosphate-glycerol-ester
angle_coeff    3  3.5851  180.00 # glycerol-ester-tail, tail-tail-tail (saturated)
angle_coeff    4  3.5851  120.00 # tail-tail-tail (unsaturated)

special_bonds	lj/coul 0.0 1.0 1.0 
  4 = max # of 1-2 neighbors
  3 = max # of special neighbors
velocity	all create 0.0 87287 

neighbor	1 bin
neigh_modify	delay 2

group		lipids type 2 3 4 5 6
1920 atoms in group lipids
group		water type 1
4232 atoms in group water

fix		integrate all nve/sphere update dipole
fix 		tempLip lipids langevin 303.15 303.15 100.0 48279 omega yes
fix 		tempWat water langevin 303.15 303.15 100.0 48279 omega yes
fix             removeMomentum all momentum 1 linear 1 1 1

compute		erot all erotate/sphere
thermo_style	custom step etotal pe epair c_erot press temp
thermo		100
dump		trj all custom 500 dump.trj id type mol x y z mux muy muz
dump_modify	trj sort id

timestep	1
run		1000
Memory usage per processor = 4.9816 Mbytes
Step TotEng PotEng E_pair erot Press Temp 
       0   -40155.061   -40155.061   -42127.201            0   -636.04991            0 
     100   -36612.253     -41685.9    -43580.84    4988.9025   -913.16111    276.71977 
     200   -35579.242   -40830.151   -42730.342    5350.4896    -181.0462    286.38781 
     300   -34958.893   -40423.861   -42315.626    5545.7193    192.95673    298.06271 
     400   -34773.673    -40259.96   -42169.885    5580.6866    214.78071    299.22543 
     500   -34631.198   -40239.529   -42206.145     5561.804    169.43198    305.88175 
     600   -34501.257   -40062.505   -42023.182     5538.412    231.85191    303.31386 
     700   -34457.954   -40125.361   -42060.963    5597.3506     286.2407    309.10384 
     800   -34472.458   -40095.333   -42020.355     5622.132    280.47668    306.67504 
     900   -34454.314   -40018.569   -41958.581    5609.1104    334.61561    303.47784 
    1000   -34568.137    -40149.57   -42073.288    5538.6305    297.65941    304.41476 
Loop time of 11.3618 on 8 procs for 1000 steps with 6152 atoms

Pair  time (%) = 7.13636 (62.8101)
Bond  time (%) = 0.0425639 (0.374623)
Neigh time (%) = 0.0791928 (0.697009)
Comm  time (%) = 3.71016 (32.6547)
Outpt time (%) = 0.0335301 (0.295112)
Other time (%) = 0.359998 (3.16849)

Nlocal:    769 ave 859 max 689 min
Histogram: 2 0 1 1 0 1 1 0 0 2
Nghost:    3561.5 ave 3648 max 3476 min
Histogram: 1 1 0 1 1 1 1 0 0 2
Neighs:    76344.2 ave 93370 max 60459 min
Histogram: 2 0 1 1 0 0 0 2 1 1

Total # of neighbors = 610754
Ave neighs/atom = 99.2773
Ave special neighs/atom = 0.582575
Neighbor list builds = 19
Dangerous builds = 0

timestep	2
run		1000
Memory usage per processor = 4.9816 Mbytes
Step TotEng PotEng E_pair erot Press Temp 
    1000   -34568.137    -40149.57   -42073.288    5538.6305    297.65941    304.41476 
    1100   -34472.782   -40065.745   -42004.998    5541.4094    216.55376    305.04356 
    1200   -34531.497   -40092.015   -42039.476    5584.5991    231.13997    303.27402 
    1300   -34463.244   -40094.613   -42085.546    5508.4059    247.69186    307.13825 
    1400   -34501.963   -40099.501   -42020.064    5570.0242     275.3297    305.29311 
    1500   -34390.388   -39957.944   -41922.267    5569.2943    321.76784    303.65788 
    1600   -34496.412   -39906.126   -41873.493    5585.6002    300.03862    295.04908 
    1700   -34512.231   -40026.835   -42029.925    5454.3872    178.24469    300.76984 
    1800   -34433.874   -39963.009   -41892.424    5499.9826    258.36973    301.56235 
    1900   -34419.475   -40021.048   -41962.249    5596.7367    238.81328    305.51319 
    2000   -34384.499   -40048.158   -41991.223    5582.7167    213.52542    308.89945 
Loop time of 10.8852 on 8 procs for 1000 steps with 6152 atoms

Pair  time (%) = 7.07324 (64.9801)
Bond  time (%) = 0.0428112 (0.393296)
Neigh time (%) = 0.166238 (1.52719)
Comm  time (%) = 3.22046 (29.5856)
Outpt time (%) = 0.0334353 (0.307162)
Other time (%) = 0.34905 (3.20664)

Nlocal:    769 ave 844 max 701 min
Histogram: 2 0 1 1 0 0 2 0 0 2
Nghost:    3555.38 ave 3640 max 3496 min
Histogram: 3 0 1 0 1 0 1 0 1 1
Neighs:    76286.6 ave 92365 max 61721 min
Histogram: 2 1 0 1 0 0 1 1 1 1

Total # of neighbors = 610293
Ave neighs/atom = 99.2024
Ave special neighs/atom = 0.582575
Neighbor list builds = 40
Dangerous builds = 0

timestep	5
run		1000
Memory usage per processor = 4.9816 Mbytes
Step TotEng PotEng E_pair erot Press Temp 
    2000   -34384.499   -40048.158   -41991.223    5582.7167    213.52542    308.89945 
    2100   -34552.183   -40100.146    -42065.31    5616.0395    129.42966    302.58926 
    2200   -34519.079   -39994.009   -41981.732    5524.8033    223.05252    298.60599 
    2300   -34356.002   -39904.124   -41920.272    5625.5902    294.61704    302.59793 
    2400    -34420.08   -39984.288   -41957.254    5524.1707    61.389105     303.4753 
    2500   -34243.755   -39912.591   -41898.396    5536.2239    167.30978    309.18175 
    2600   -34312.171   -39877.893   -41836.153    5560.2356    219.56087    303.55787 
    2700   -34379.358   -39967.583   -41917.563    5619.4919    177.26164    304.78515 
    2800   -34372.302   -39865.335   -41856.233    5506.8339    291.30705    299.59333 
    2900   -34215.191   -39824.134   -41841.485    5631.1851    293.65359    305.91512 
    3000   -34464.049   -39920.788   -41936.094    5570.7626    124.74707    297.61384 
Loop time of 11.2009 on 8 procs for 1000 steps with 6152 atoms

Pair  time (%) = 6.81819 (60.872)
Bond  time (%) = 0.0409955 (0.366003)
Neigh time (%) = 0.381864 (3.40923)
Comm  time (%) = 3.5695 (31.8681)
Outpt time (%) = 0.0334368 (0.29852)
Other time (%) = 0.35688 (3.18618)

Nlocal:    769 ave 865 max 696 min
Histogram: 2 1 1 0 0 2 0 0 1 1
Nghost:    3550.25 ave 3626 max 3461 min
Histogram: 1 1 1 0 0 1 1 1 0 2
Neighs:    76218.1 ave 93012 max 60883 min
Histogram: 2 0 1 1 0 0 1 1 1 1

Total # of neighbors = 609745
Ave neighs/atom = 99.1133
Ave special neighs/atom = 0.582575
Neighbor list builds = 97
Dangerous builds = 0

timestep	10
run		1000
Memory usage per processor = 4.9816 Mbytes
Step TotEng PotEng E_pair erot Press Temp 
    3000   -34464.049   -39920.788   -41936.094    5570.7626    124.74707    297.61384 
    3100    -34317.87   -39898.041   -41929.702    5589.4433    142.34302    304.34591 
    3200   -34422.464   -40011.611   -42055.126    5548.7891    176.13854    304.83546 
    3300   -34474.384   -39978.479   -42006.053    5471.6553    74.087178    300.19672 
    3400   -34335.013   -40045.905   -42038.554    5508.9627    175.54829    311.47553 
    3500   -34189.569   -39810.509   -41854.937    5652.3341    144.99631    306.56949 
    3600   -34304.731   -39921.128    -41984.09    5641.8535    215.91322    306.32173 
    3700   -34336.905   -39914.366   -41945.187    5363.2115    186.31151    304.19814 
    3800    -34378.94   -39857.154   -41881.054    5670.1215    225.64974    298.78508 
    3900   -34403.773   -40014.847   -42026.394    5542.2436    92.420254    306.03139 
    4000   -34358.271   -39885.931   -41920.529    5599.6309    232.41665    301.48194 
Loop time of 11.9201 on 8 procs for 1000 steps with 6152 atoms

Pair  time (%) = 6.81357 (57.1601)
Bond  time (%) = 0.0409541 (0.343571)
Neigh time (%) = 0.742531 (6.22921)
Comm  time (%) = 3.93241 (32.9896)
Outpt time (%) = 0.0334724 (0.280806)
Other time (%) = 0.357213 (2.99672)

Nlocal:    769 ave 865 max 700 min
Histogram: 2 1 1 0 0 2 0 0 1 1
Nghost:    3546.12 ave 3631 max 3479 min
Histogram: 2 1 0 1 0 1 0 1 1 1
Neighs:    76348.8 ave 93169 max 61688 min
Histogram: 2 1 1 0 0 0 1 1 1 1

Total # of neighbors = 610790
Ave neighs/atom = 99.2832
Ave special neighs/atom = 0.582575
Neighbor list builds = 189
Dangerous builds = 0

fix		baro all press/berendsen aniso 1 1 500 modulus 22222
run		1000
Memory usage per processor = 4.9816 Mbytes
Step TotEng PotEng E_pair erot Press Temp 
    4000   -34358.271   -39885.931   -41920.529    5599.6309    232.41665    301.48194 
    4100   -34252.322   -39821.436   -41787.362    5485.9249    100.68147    303.74288 
    4200   -34364.473   -39848.503   -41837.851    5499.6155   -67.113778    299.10234 
    4300   -34056.131   -39651.107   -41622.719    5662.8383    22.990408    305.15336 
    4400   -34216.514   -39789.586   -41787.448    5724.2855    30.680754     303.9587 
    4500   -34179.247   -39735.437   -41725.673    5595.6525   -20.535902    303.03801 
    4600   -34255.636   -39764.712   -41695.668    5543.3348   -47.378522    300.46834 
    4700   -34130.425   -39664.666    -41657.11    5606.0036    23.315964    301.84083 
    4800   -34140.242   -39644.447     -41639.1    5621.9164   -25.765428    300.20267 
    4900   -33990.293   -39640.515   -41638.144    5416.3571     70.04467    308.16649 
    5000   -34020.102   -39574.208   -41576.774    5604.8912   -1.3539075    302.92433 
Loop time of 12.2419 on 8 procs for 1000 steps with 6152 atoms

Pair  time (%) = 7.00879 (57.2526)
Bond  time (%) = 0.0498146 (0.40692)
Neigh time (%) = 0.790935 (6.46091)
Comm  time (%) = 3.95798 (32.3315)
Outpt time (%) = 0.0334755 (0.273451)
Other time (%) = 0.400876 (3.27463)

Nlocal:    769 ave 852 max 709 min
Histogram: 2 1 1 0 1 0 1 0 1 1
Nghost:    3531.62 ave 3607 max 3463 min
Histogram: 2 1 0 0 1 1 0 1 0 2
Neighs:    75412.5 ave 90150 max 61578 min
Histogram: 2 1 0 1 0 0 1 0 2 1

Total # of neighbors = 603300
Ave neighs/atom = 98.0657
Ave special neighs/atom = 0.582575
Neighbor list builds = 193
Dangerous builds = 0
