LAMMPS (25 Sep 2011)
units		real
atom_style	hybrid angle dipole sphere 
read_data 	data.128dopc4232wat
  2 = max bonds/atom
  2 = max angles/atom
  orthogonal box = (-34.0863 -34.0863 -31.5696) to (34.0863 34.0863 31.5696)
  2 by 2 by 2 processor grid
  6152 atoms
  1792 bonds
  2048 angles
  3 = max # of 1-2 neighbors
  3 = max # of 1-3 neighbors
  6 = max # of 1-4 neighbors
  8 = max # of special neighbors
include 	forcefield.dopc
pair_style dipole/sf 12
bond_style harmonic 
angle_style hybrid cosine/squared dipole

#    type  mass [grams/mol]
mass    1   40.000 # water
mass    2   90.000 # choline
mass    3   90.000 # phosphate
mass    4   62.000 # glycerol
mass    5   62.000 # ester
mass    6   42.000 # tail

# LJ coeffs: iType jType epsilon_ij [kcal/mol] sigma_ij [angstrom]
pair_coeff    1    1	  0.466  3.000 # water-water
pair_coeff    1    2	  0.585  4.100 # water-choline
pair_coeff    1    3	  1.054  4.100 # water-phosphate
pair_coeff    1    4	  0.574  3.800 # water-glycerol
pair_coeff    1    5	  0.765  3.800 # water-ester
pair_coeff    1    6	  0.447  3.750 # water-tail
pair_coeff    2    2	  1.434  5.200 # choline-choline
pair_coeff    2    3	  1.434  5.200 # choline-phosphate
pair_coeff    2    4	  1.171  4.900 # choline-glycerol
pair_coeff    2    5	  1.171  4.900 # choline-ester
pair_coeff    2    6	  1.095  4.850 # choline-tail
pair_coeff    3    3	  1.434  5.200 # phosphate-phosphate
pair_coeff    3    4	  1.171  4.900 # phosphate-glycerol
pair_coeff    3    5	  1.171  4.900 # phosphate-ester
pair_coeff    3    6	  1.095  4.850 # phosphate-tail
pair_coeff    4    4	  0.956  4.600 # glycerol-glycerol
pair_coeff    4    5	  0.956  4.600 # glycerol-ester
pair_coeff    4    6	  0.894  4.550 # glycerol-tail
pair_coeff    5    5	  0.956  4.600 # ester-ester 
pair_coeff    5    6	  0.894  4.550 # ester-tail
pair_coeff    6    6	  0.837  4.500 # tail-tail

# harmonic bond coeffs:  K [kcal/(mol*angstrom^2)] r0 [angstrom] 
bond_coeff    1   1.506  4.680 # choline--phosphate
bond_coeff    2   1.506  4.410 # phosphate--glycerol
bond_coeff    3   1.506  4.140 # glycerol--ester
bond_coeff    4   1.506  4.095 # ester--tail
bond_coeff    5   1.506  4.050 # tail--tail

# angle coeffs: K [kcal/mol] theta0 [degrees]
angle_coeff 1 cosine/squared 3.5851 115.00 # choline-phosphate-glycerol
angle_coeff 2 cosine/squared 3.5851 160.00 # phosphate-glycerol-ester
angle_coeff 3 cosine/squared 3.5851 180.00 # gly-est-tail, tail-tail-tail (sat)
angle_coeff 4 cosine/squared 3.5851 120.00 # tail-tail-tail (unsat)
# dipole angle coeffs:  K [kcal/mol] gamma0 [degrees] 
angle_coeff 5  dipole    1.195  0.000 # glyDipole-phosphate, estDipole-tail


special_bonds	lj/coul 0.0 1.0 1.0 
  3 = max # of 1-2 neighbors
  3 = max # of special neighbors
velocity	all create 0.0 87287 

neighbor	1 bin
neigh_modify	delay 0

group		lipids type 2 3 4 5 6
1920 atoms in group lipids
group		water type 1
4232 atoms in group water

fix		integrate all nve/sphere update dipole
fix 		tempLip lipids langevin 303.15 303.15 100.0 48279 omega yes
fix 		tempWat water langevin 303.15 303.15 100.0 48279 omega yes
fix             removeMomentum all momentum 1 linear 1 1 1

compute		erot all erotate/sphere
thermo_style	custom step etotal pe epair c_erot press temp
thermo		10
dump		trj all custom 500 dump.trj id type mol x y z mux muy muz
dump_modify	trj sort id

timestep	1
run		100
Memory usage per processor = 4.90776 Mbytes
Step TotEng PotEng E_pair erot Press Temp 
       0   -40155.061   -40155.061   -42127.201            0   -636.04991            0 
      10   -39229.959    -40315.34       -42285     976.9125   -620.86228    59.197311 
      20   -38498.895   -40680.624   -42643.562    1861.8379    -792.6844    118.99279 
      30   -37972.624   -41082.804   -43035.137    2628.5736   -1010.6017     169.6311 
      40    -37582.99   -41424.455   -43364.511    3252.4854   -1182.7405    209.51584 
      50   -37376.579   -41653.953   -43582.875    3788.5201   -1273.3461    233.29054 
      60   -37246.768   -41778.932   -43698.278    4174.4583   -1285.3639    247.18698 
      70    -37111.07   -41823.372   -43734.161    4398.9474   -1232.6164    257.01183 
      80   -36908.171   -41803.924   -43707.776    4648.8865   -1124.6778     267.0173 
      90   -36756.449   -41756.196    -43655.03    4832.2222   -1019.3732    272.68923 
     100   -36612.253     -41685.9    -43580.84    4988.9025   -913.16111    276.71977 
Loop time of 1.14735 on 8 procs for 100 steps with 6152 atoms

Pair  time (%) = 0.773373 (67.4053)
Bond  time (%) = 0.00396019 (0.34516)
Neigh time (%) = 0.00386101 (0.336516)
Comm  time (%) = 0.334366 (29.1425)
Outpt time (%) = 0.000685245 (0.0597242)
Other time (%) = 0.0311026 (2.71082)

Nlocal:    769 ave 860 max 698 min
Histogram: 2 1 0 1 0 1 1 0 1 1
Nghost:    3540.38 ave 3611 max 3457 min
Histogram: 1 1 0 1 1 1 0 0 1 2
Neighs:    76281.2 ave 92299 max 61315 min
Histogram: 2 0 2 0 0 0 0 2 1 1

Total # of neighbors = 610250
Ave neighs/atom = 99.1954
Ave special neighs/atom = 0.582575
Neighbor list builds = 1
Dangerous builds = 0

timestep	2
run		100
Memory usage per processor = 4.90776 Mbytes
Step TotEng PotEng E_pair erot Press Temp 
     100   -36612.253     -41685.9    -43580.84    4988.9025   -913.16111    276.71977 
     110   -36378.293   -41486.243   -43380.306    5023.1162   -721.01947    278.59074 
     120    -36156.89   -41274.722   -43170.329    5145.6004   -549.88039     279.1297 
     130   -35912.543   -41084.837   -42984.426    5221.3073   -395.62225    282.10005 
     140   -35656.055   -40916.323    -42821.95    5279.2463   -258.19173    286.89822 
     150   -35565.697    -40762.47    -42673.43    5410.0958   -155.24736    283.43512 
     160   -35411.655   -40672.361   -42588.909    5437.0949   -96.183182    286.92206 
     170   -35295.891   -40636.415   -42554.374     5401.816   -88.378974    291.27543 
     180   -35234.879   -40583.189   -42499.915    5432.3869   -65.921543     291.7001 
     190   -35071.676   -40488.195   -42403.969     5412.597     23.07654    295.42025 
     200   -35020.358   -40413.664   -42334.131    5445.6344    63.863177    294.15421 
Loop time of 1.16753 on 8 procs for 100 steps with 6152 atoms

Pair  time (%) = 0.775573 (66.4286)
Bond  time (%) = 0.00396532 (0.339634)
Neigh time (%) = 0.0155342 (1.33052)
Comm  time (%) = 0.340796 (29.1895)
Outpt time (%) = 0.000628889 (0.053865)
Other time (%) = 0.0310313 (2.65786)

Nlocal:    769 ave 859 max 691 min
Histogram: 2 1 0 1 0 1 0 1 1 1
Nghost:    3560.88 ave 3640 max 3469 min
Histogram: 1 0 2 0 1 1 0 0 1 2
Neighs:    76325.2 ave 92478 max 60844 min
Histogram: 2 0 2 0 0 0 0 2 1 1

Total # of neighbors = 610602
Ave neighs/atom = 99.2526
Ave special neighs/atom = 0.582575
Neighbor list builds = 4
Dangerous builds = 0

timestep	5
run		100
Memory usage per processor = 4.90776 Mbytes
Step TotEng PotEng E_pair erot Press Temp 
     200   -35020.358   -40413.664   -42334.131    5445.6344    63.863177    294.15421 
     210   -35053.167   -40376.573   -42312.042    5385.2599    60.669638    290.34181 
     220   -34958.251   -40368.489   -42313.875    5461.8013    115.75727    295.07769 
     230   -34829.379   -40342.996   -42289.154    5516.7511    49.378657    300.71602 
     240   -34759.946   -40310.156   -42266.613    5479.2218    29.608851    302.71184 
     250   -34636.836    -40185.64   -42158.047     5473.947    76.764782    302.63517 
     260   -34629.066    -40121.31   -42112.388    5627.5709    89.825361    299.55031 
     270   -34490.334   -40050.437   -42054.242    5546.2735    195.13493    303.25138 
     280   -34508.103   -40052.726   -42049.858    5537.5064    172.25981    302.40711 
     290    -34454.43   -40053.229   -42049.587    5612.5083     148.0803    305.36192 
     300   -34518.251   -40050.731   -42059.312    5634.3505    138.91796    301.74486 
Loop time of 1.20201 on 8 procs for 100 steps with 6152 atoms

Pair  time (%) = 0.778976 (64.8063)
Bond  time (%) = 0.00398925 (0.331883)
Neigh time (%) = 0.0388812 (3.2347)
Comm  time (%) = 0.347455 (28.9063)
Outpt time (%) = 0.000631273 (0.0525183)
Other time (%) = 0.0320729 (2.66828)

Nlocal:    769 ave 869 max 686 min
Histogram: 2 1 0 1 0 1 1 0 1 1
Nghost:    3555.12 ave 3651 max 3459 min
Histogram: 1 0 1 1 2 0 0 1 1 1
Neighs:    76318.6 ave 92906 max 60342 min
Histogram: 2 0 1 1 0 0 0 2 1 1

Total # of neighbors = 610549
Ave neighs/atom = 99.244
Ave special neighs/atom = 0.582575
Neighbor list builds = 10
Dangerous builds = 0

timestep	10
run		100
Memory usage per processor = 4.90776 Mbytes
Step TotEng PotEng E_pair erot Press Temp 
     300   -34518.251   -40050.731   -42059.312    5634.3505    138.91796    301.74486 
     310   -34731.149   -40113.023    -42119.11    5484.0762  -0.47532597    293.53066 
     320   -34595.656   -40051.346   -42047.007    5582.0372    125.53212    297.55667 
     330   -34463.232    -40037.76   -42052.816    5566.1778    121.87699    304.03813 
     340   -34513.315   -40081.528   -42064.345    5549.3959    169.34046    303.69371 
     350   -34453.323   -40059.933   -42019.723     5576.665    107.04905    305.78789 
     360   -34512.377    -39986.41   -41970.017    5589.8291    269.12178    298.55709 
     370   -34304.564   -39915.412   -41902.378    5628.5006    196.58211    306.01902 
     380    -34405.54   -40000.101   -41972.589    5623.1563    183.31945    305.13078 
     390   -34416.204   -39954.762   -41931.531    5529.2479    288.46966     302.0763 
     400   -34357.382   -39947.175     -41907.1     5496.473    250.90638    304.87068 
Loop time of 1.22011 on 8 procs for 100 steps with 6152 atoms

Pair  time (%) = 0.757086 (62.0505)
Bond  time (%) = 0.0039565 (0.324273)
Neigh time (%) = 0.0685971 (5.6222)
Comm  time (%) = 0.358205 (29.3583)
Outpt time (%) = 0.00061515 (0.0504175)
Other time (%) = 0.0316525 (2.59423)

Nlocal:    769 ave 867 max 692 min
Histogram: 2 1 0 1 0 2 0 0 0 2
Nghost:    3547.5 ave 3620 max 3457 min
Histogram: 1 1 0 1 0 2 0 0 0 3
Neighs:    76363.6 ave 93523 max 60542 min
Histogram: 2 0 2 0 0 0 1 1 1 1

Total # of neighbors = 610909
Ave neighs/atom = 99.3025
Ave special neighs/atom = 0.582575
Neighbor list builds = 18
Dangerous builds = 0

fix		baro all press/berendsen aniso 1 1 5000 modulus 22222
run		100
Memory usage per processor = 4.90776 Mbytes
Step TotEng PotEng E_pair erot Press Temp 
     400   -34357.382   -39947.175     -41907.1     5496.473    250.90638    304.87068 
     410   -34594.928   -40144.152   -42113.234    5531.6181   -17.857705    302.65805 
     420   -34511.755    -39981.51   -41963.491    5518.9068    208.64615    298.32374 
     430   -34558.311   -40114.955   -42078.887    5513.2972    119.02007    303.06273 
     440   -34461.517   -40065.635   -42039.945    5503.9635    227.81699    305.65198 
     450    -34429.35   -39915.654   -41903.132    5616.8573    265.73182    299.22635 
     460   -34376.987   -39847.109   -41827.574    5584.0027    160.69251    298.34379 
     470   -34285.585   -39846.475   -41824.028    5688.6753    180.99502    303.29431 
     480    -34257.19   -39894.125   -41860.837    5680.8752    212.06988    307.44184 
     490   -34370.575   -39915.848   -41893.317    5617.5199    200.31647    302.44257 
     500    -34360.07   -39836.177   -41833.162      5613.24    306.48365    298.67015 
Loop time of 1.22284 on 8 procs for 100 steps with 6152 atoms

Pair  time (%) = 0.732836 (59.9291)
Bond  time (%) = 0.00464997 (0.38026)
Neigh time (%) = 0.0693454 (5.67085)
Comm  time (%) = 0.363987 (29.7658)
Outpt time (%) = 0.0169211 (1.38376)
Other time (%) = 0.0350983 (2.87023)

Nlocal:    769 ave 869 max 688 min
Histogram: 2 1 1 0 0 2 0 0 0 2
Nghost:    3543.25 ave 3621 max 3452 min
Histogram: 2 0 0 1 1 1 0 0 1 2
Neighs:    76241.6 ave 93076 max 60145 min
Histogram: 2 0 1 1 0 0 1 1 1 1

Total # of neighbors = 609933
Ave neighs/atom = 99.1439
Ave special neighs/atom = 0.582575
Neighbor list builds = 19
Dangerous builds = 0
