LAMMPS (14 May 2013)
WARNING: OMP_NUM_THREADS environment is not set. (../comm.cpp:100)
  using 1 OpenMP thread(s) per MPI task
read_restart    restart.*
  orthogonal box = (-7.51382 -7.51382 -33.0611) to (58.5138 58.5138 33.0611)
  1 by 2 by 2 MPI processor grid
  6016 atoms
  1792 bonds
  2048 angles
  3 = max # of 1-2 neighbors
  3 = max # of special neighbors
include 	forcefield.elba
pair_style dipole/sf 12.0
special_bonds lj/coul 0.0 1.0 1.0
bond_style harmonic
angle_style hybrid cosine/squared dipole

mass    1   40.000
mass    2   90.000
mass    3   90.000
mass    4   62.000
mass    5   62.000
mass    6   42.000
mass    7   42.000

set type 1 diameter 5.0 # wat dipole
  4096 settings made for diameter
set type 4 diameter 12.7 # gly dipole
  128 settings made for diameter
set type 5 diameter 12.7 # est dipole
  256 settings made for diameter

pair_coeff    1    1	  0.550  3.050 # wat-wat
pair_coeff    1    2	  0.725  4.225 # wat-cho
pair_coeff    1    3	  0.943  4.125 # wat-pho
pair_coeff    1    4	  0.651  3.825 # wat-gly
pair_coeff    1    5	  0.710  3.825 # wat-est
pair_coeff    1    6	  0.554  3.775 # wat-tail
pair_coeff    1    7	  0.609  3.775 # wat-ami
pair_coeff    2    2	  1.434  5.400 # cho-cho
pair_coeff    2    3	  1.434  5.300 # cho-pho
pair_coeff    2    4	  1.171  5.000 # cho-gly
pair_coeff    2    5	  1.171  5.000 # cho-est
pair_coeff    2    6	  1.095  4.950 # cho-tail
pair_coeff    2    7	  1.095  4.950 # cho-ami
pair_coeff    3    3	  1.434  5.200 # pho-pho
pair_coeff    3    4	  1.171  4.900 # pho-gly
pair_coeff    3    5	  1.171  4.900 # pho-est
pair_coeff    3    6	  1.095  4.850 # pho-tail
pair_coeff    3    7	  1.424  4.850 # pho-ami
pair_coeff    4    4	  0.956  4.600 # gly-gly
pair_coeff    4    5	  0.956  4.600 # gly-est
pair_coeff    4    6	  0.894  4.550 # gly-tail
pair_coeff    4    7	  0.984  4.550 # gly-ami
pair_coeff    5    5	  0.956  4.600 # est-est
pair_coeff    5    6	  0.894  4.550 # est-tail
pair_coeff    5    7	  1.163  4.550 # est-ami
pair_coeff    6    6	  0.837  4.500 # tail-tail
pair_coeff    6    7	  0.837  4.500 # tail-ami
pair_coeff    7    7	  0.837  4.500 # ami-ami

bond_coeff    1    1.506  4.770 # cho-pho
bond_coeff    2    1.506  4.410 # pho-gly
bond_coeff    3    1.506  4.140 # gly-est
bond_coeff    4    1.506  4.095 # est-tail
bond_coeff    5    1.506  4.050 # tail-tail
bond_coeff    6    1.506  4.365 # ami-pho

angle_coeff    1  cosine/squared   3.585  115.00
angle_coeff    2  cosine/squared   3.585   90.00
angle_coeff    3  cosine/squared   3.585  180.00
angle_coeff    4  cosine/squared   3.585  120.00
angle_coeff    5  dipole           1.195    0.00


reset_timestep  0

variable	nLips equal 128 # total number of lipids
variable	nWats equal 4096 # total number of waters
variable	watVol equal 30.0 # water molecular volume (~30 A^3)
variable	atmA__in__mN_m equal 0.01013 # 1 atm*A = 0.01013 mN/m

variable	Nprd equal 1000000 # production
variable	Nthe equal 100000
variable	Ndum equal 100000
variable	Ne equal 10
variable	Nr equal 100000
variable	Nf equal ${Nprd}
variable	Nf equal 1000000
variable	Nthe_e equal ${Nthe}/${Ne}
variable	Nthe_e equal 100000/${Ne}
variable	Nthe_e equal 100000/10
variable	Dz equal 1.0

group		lip type 2 3 4 5 6 7
1920 atoms in group lip
group		head type 2 3 7
256 atoms in group head
group		wat type 1
4096 atoms in group wat
group		chol type 2
64 atoms in group chol
group		phos type 3
128 atoms in group phos
group		gly type 4
128 atoms in group gly
group		est type 5
256 atoms in group est
group		tail type 6
1280 atoms in group tail
group		ami type 7
64 atoms in group ami

timestep	10
neighbor	1 bin
neigh_modify	delay 0

fix		integrate all nve/sphere update dipole
fix 		thermo all langevin 303 303 1000 9 omega yes zero yes
fix		baro all press/berendsen aniso 1 1 1000 couple xy modulus 21740
fix             removeMomentum all momentum 100 linear 1 1 1 # angular

dump		trj all custom ${Ndum} dump.*.trj id type mol x y z mux muy muz
dump		trj all custom 100000 dump.*.trj id type mol x y z mux muy muz
dump_modify	trj sort id pad 9

# compute and average area and volume per lipid:
variable	lipArea equal lx*ly/(${nLips}/2)
variable	lipArea equal lx*ly/(128/2)
fix		lipArea lip ave/time ${Ne} ${Nthe_e} ${Nthe} v_lipArea
fix		lipArea lip ave/time 10 ${Nthe_e} ${Nthe} v_lipArea
fix		lipArea lip ave/time 10 10000 ${Nthe} v_lipArea
fix		lipArea lip ave/time 10 10000 100000 v_lipArea
variable	lipVol equal (vol-(${nWats}*${watVol}))/${nLips}
variable	lipVol equal (vol-(4096*${watVol}))/${nLips}
variable	lipVol equal (vol-(4096*30))/${nLips}
variable	lipVol equal (vol-(4096*30))/128
fix		lipVol lip ave/time ${Ne} ${Nthe_e} ${Nthe} v_lipVol
fix		lipVol lip ave/time 10 ${Nthe_e} ${Nthe} v_lipVol
fix		lipVol lip ave/time 10 10000 ${Nthe} v_lipVol
fix		lipVol lip ave/time 10 10000 100000 v_lipVol

# compute and average pressure:
variable	P equal press
fix 		P all ave/time ${Ne} ${Nthe_e} ${Nthe} v_P
fix 		P all ave/time 10 ${Nthe_e} ${Nthe} v_P
fix 		P all ave/time 10 10000 ${Nthe} v_P
fix 		P all ave/time 10 10000 100000 v_P

# compute and average total (translational + rotational) temperature:
compute 	tempTot all temp/sphere dof all
fix 		tempTot all ave/time ${Ne} ${Nthe_e} ${Nthe} c_tempTot
fix 		tempTot all ave/time 10 ${Nthe_e} ${Nthe} c_tempTot
fix 		tempTot all ave/time 10 10000 ${Nthe} c_tempTot
fix 		tempTot all ave/time 10 10000 100000 c_tempTot
#compute_modify  tempTot extra 3 # default -> no effect

# compute and average rotational temperature:
compute 	tempRot all temp/sphere dof rotate
fix 		tempRot all ave/time ${Ne} ${Nthe_e} ${Nthe} c_tempRot
fix 		tempRot all ave/time 10 ${Nthe_e} ${Nthe} c_tempRot
fix 		tempRot all ave/time 10 10000 ${Nthe} c_tempRot
fix 		tempRot all ave/time 10 10000 100000 c_tempRot

thermo_style custom step press f_P temp f_tempTot f_tempRot f_lipArea f_lipVol
#thermo_modify   temp tempTot
thermo		${Nthe}
thermo		100000

# compute and average surface tension (gamma) per monolayer:
variable	gamma equal (0.5*lz*(pzz-0.5*(pxx+pyy))/3)*${atmA__in__mN_m}
variable	gamma equal (0.5*lz*(pzz-0.5*(pxx+pyy))/3)*0.010130000000000000115
fix	gamma all ave/time ${Ne} ${Nthe_e} ${Nthe} v_gamma file gamma.dat
fix	gamma all ave/time 10 ${Nthe_e} ${Nthe} v_gamma file gamma.dat
fix	gamma all ave/time 10 10000 ${Nthe} v_gamma file gamma.dat
fix	gamma all ave/time 10 10000 100000 v_gamma file gamma.dat

# compute and average interface area (bilayer assumed parallel to xy plane):
variable	xyArea equal lx*ly
fix 		xyArea all ave/time 1 1 ${Ne} v_xyArea file xyArea.dat
fix 		xyArea all ave/time 1 1 10 v_xyArea file xyArea.dat

# compute and average box volume:
variable	boxVol equal vol
fix 		boxVol all ave/time 1 1 ${Ne} v_boxVol file boxVol.dat
fix 		boxVol all ave/time 1 1 10 v_boxVol file boxVol.dat

fix 	numDensLip lip ave/spatial ${Ne} ${Nr} ${Nf} z center ${Dz} 		density/number units box file numDensLip.zProfile
fix 	numDensLip lip ave/spatial 10 ${Nr} ${Nf} z center ${Dz} 		density/number units box file numDensLip.zProfile
fix 	numDensLip lip ave/spatial 10 100000 ${Nf} z center ${Dz} 		density/number units box file numDensLip.zProfile
fix 	numDensLip lip ave/spatial 10 100000 1000000 z center ${Dz} 		density/number units box file numDensLip.zProfile
fix 	numDensLip lip ave/spatial 10 100000 1000000 z center 1 		density/number units box file numDensLip.zProfile
fix 	numDensWat wat ave/spatial ${Ne} ${Nr} ${Nf} z center ${Dz} 		density/number units box file numDensWat.zProfile
fix 	numDensWat wat ave/spatial 10 ${Nr} ${Nf} z center ${Dz} 		density/number units box file numDensWat.zProfile
fix 	numDensWat wat ave/spatial 10 100000 ${Nf} z center ${Dz} 		density/number units box file numDensWat.zProfile
fix 	numDensWat wat ave/spatial 10 100000 1000000 z center ${Dz} 		density/number units box file numDensWat.zProfile
fix 	numDensWat wat ave/spatial 10 100000 1000000 z center 1 		density/number units box file numDensWat.zProfile
fix 	numDensChol chol ave/spatial ${Ne} ${Nr} ${Nf} z center ${Dz} 		density/number units box file numDensChol.zProfile
fix 	numDensChol chol ave/spatial 10 ${Nr} ${Nf} z center ${Dz} 		density/number units box file numDensChol.zProfile
fix 	numDensChol chol ave/spatial 10 100000 ${Nf} z center ${Dz} 		density/number units box file numDensChol.zProfile
fix 	numDensChol chol ave/spatial 10 100000 1000000 z center ${Dz} 		density/number units box file numDensChol.zProfile
fix 	numDensChol chol ave/spatial 10 100000 1000000 z center 1 		density/number units box file numDensChol.zProfile
fix 	numDensPhos phos ave/spatial ${Ne} ${Nr} ${Nf} z center ${Dz} 		density/number units box file numDensPhos.zProfile
fix 	numDensPhos phos ave/spatial 10 ${Nr} ${Nf} z center ${Dz} 		density/number units box file numDensPhos.zProfile
fix 	numDensPhos phos ave/spatial 10 100000 ${Nf} z center ${Dz} 		density/number units box file numDensPhos.zProfile
fix 	numDensPhos phos ave/spatial 10 100000 1000000 z center ${Dz} 		density/number units box file numDensPhos.zProfile
fix 	numDensPhos phos ave/spatial 10 100000 1000000 z center 1 		density/number units box file numDensPhos.zProfile
fix 	numDensGly gly ave/spatial ${Ne} ${Nr} ${Nf} z center ${Dz} 		density/number units box file numDensGly.zProfile
fix 	numDensGly gly ave/spatial 10 ${Nr} ${Nf} z center ${Dz} 		density/number units box file numDensGly.zProfile
fix 	numDensGly gly ave/spatial 10 100000 ${Nf} z center ${Dz} 		density/number units box file numDensGly.zProfile
fix 	numDensGly gly ave/spatial 10 100000 1000000 z center ${Dz} 		density/number units box file numDensGly.zProfile
fix 	numDensGly gly ave/spatial 10 100000 1000000 z center 1 		density/number units box file numDensGly.zProfile
fix 	numDensEst est ave/spatial ${Ne} ${Nr} ${Nf} z center ${Dz} 		density/number units box file numDensEst.zProfile
fix 	numDensEst est ave/spatial 10 ${Nr} ${Nf} z center ${Dz} 		density/number units box file numDensEst.zProfile
fix 	numDensEst est ave/spatial 10 100000 ${Nf} z center ${Dz} 		density/number units box file numDensEst.zProfile
fix 	numDensEst est ave/spatial 10 100000 1000000 z center ${Dz} 		density/number units box file numDensEst.zProfile
fix 	numDensEst est ave/spatial 10 100000 1000000 z center 1 		density/number units box file numDensEst.zProfile
fix 	numDensTail tail ave/spatial ${Ne} ${Nr} ${Nf} z center ${Dz} 		density/number units box file numDensTail.zProfile
fix 	numDensTail tail ave/spatial 10 ${Nr} ${Nf} z center ${Dz} 		density/number units box file numDensTail.zProfile
fix 	numDensTail tail ave/spatial 10 100000 ${Nf} z center ${Dz} 		density/number units box file numDensTail.zProfile
fix 	numDensTail tail ave/spatial 10 100000 1000000 z center ${Dz} 		density/number units box file numDensTail.zProfile
fix 	numDensTail tail ave/spatial 10 100000 1000000 z center 1 		density/number units box file numDensTail.zProfile
fix 	numDensAmi ami ave/spatial ${Ne} ${Nr} ${Nf} z center ${Dz} 		density/number units box file numDensAmi.zProfile
fix 	numDensAmi ami ave/spatial 10 ${Nr} ${Nf} z center ${Dz} 		density/number units box file numDensAmi.zProfile
fix 	numDensAmi ami ave/spatial 10 100000 ${Nf} z center ${Dz} 		density/number units box file numDensAmi.zProfile
fix 	numDensAmi ami ave/spatial 10 100000 1000000 z center ${Dz} 		density/number units box file numDensAmi.zProfile
fix 	numDensAmi ami ave/spatial 10 100000 1000000 z center 1 		density/number units box file numDensAmi.zProfile

compute		stpa all stress/atom
fix	stress all ave/spatial ${Ne} ${Nr} ${Nf} z center ${Dz} 		c_stpa[1] c_stpa[2] c_stpa[3] c_stpa[4] c_stpa[5] c_stpa[6] 		units box file stress.zProfile
fix	stress all ave/spatial 10 ${Nr} ${Nf} z center ${Dz} 		c_stpa[1] c_stpa[2] c_stpa[3] c_stpa[4] c_stpa[5] c_stpa[6] 		units box file stress.zProfile
fix	stress all ave/spatial 10 100000 ${Nf} z center ${Dz} 		c_stpa[1] c_stpa[2] c_stpa[3] c_stpa[4] c_stpa[5] c_stpa[6] 		units box file stress.zProfile
fix	stress all ave/spatial 10 100000 1000000 z center ${Dz} 		c_stpa[1] c_stpa[2] c_stpa[3] c_stpa[4] c_stpa[5] c_stpa[6] 		units box file stress.zProfile
fix	stress all ave/spatial 10 100000 1000000 z center 1 		c_stpa[1] c_stpa[2] c_stpa[3] c_stpa[4] c_stpa[5] c_stpa[6] 		units box file stress.zProfile

compute		stke all stress/atom ke
fix	stressKinEn all ave/spatial ${Ne} ${Nr} ${Nf} z center ${Dz} 		c_stke[1] c_stke[2] c_stke[3] c_stke[4] c_stke[5] c_stke[6] 		units box file stressKinEn.zProfile
fix	stressKinEn all ave/spatial 10 ${Nr} ${Nf} z center ${Dz} 		c_stke[1] c_stke[2] c_stke[3] c_stke[4] c_stke[5] c_stke[6] 		units box file stressKinEn.zProfile
fix	stressKinEn all ave/spatial 10 100000 ${Nf} z center ${Dz} 		c_stke[1] c_stke[2] c_stke[3] c_stke[4] c_stke[5] c_stke[6] 		units box file stressKinEn.zProfile
fix	stressKinEn all ave/spatial 10 100000 1000000 z center ${Dz} 		c_stke[1] c_stke[2] c_stke[3] c_stke[4] c_stke[5] c_stke[6] 		units box file stressKinEn.zProfile
fix	stressKinEn all ave/spatial 10 100000 1000000 z center 1 		c_stke[1] c_stke[2] c_stke[3] c_stke[4] c_stke[5] c_stke[6] 		units box file stressKinEn.zProfile

compute		stnb all stress/atom pair
fix	stressNonBond all ave/spatial ${Ne} ${Nr} ${Nf} z center ${Dz} 		c_stnb[1] c_stnb[2] c_stnb[3] c_stnb[4] c_stnb[5] c_stnb[6] 		units box file stressNonBond.zProfile
fix	stressNonBond all ave/spatial 10 ${Nr} ${Nf} z center ${Dz} 		c_stnb[1] c_stnb[2] c_stnb[3] c_stnb[4] c_stnb[5] c_stnb[6] 		units box file stressNonBond.zProfile
fix	stressNonBond all ave/spatial 10 100000 ${Nf} z center ${Dz} 		c_stnb[1] c_stnb[2] c_stnb[3] c_stnb[4] c_stnb[5] c_stnb[6] 		units box file stressNonBond.zProfile
fix	stressNonBond all ave/spatial 10 100000 1000000 z center ${Dz} 		c_stnb[1] c_stnb[2] c_stnb[3] c_stnb[4] c_stnb[5] c_stnb[6] 		units box file stressNonBond.zProfile
fix	stressNonBond all ave/spatial 10 100000 1000000 z center 1 		c_stnb[1] c_stnb[2] c_stnb[3] c_stnb[4] c_stnb[5] c_stnb[6] 		units box file stressNonBond.zProfile

compute		stb all stress/atom bond
fix	stressBond all ave/spatial ${Ne} ${Nr} ${Nf} z center ${Dz} 		c_stb[1] c_stb[2] c_stb[3] c_stb[4] c_stb[5] c_stb[6] 		units box file stressBond.zProfile
fix	stressBond all ave/spatial 10 ${Nr} ${Nf} z center ${Dz} 		c_stb[1] c_stb[2] c_stb[3] c_stb[4] c_stb[5] c_stb[6] 		units box file stressBond.zProfile
fix	stressBond all ave/spatial 10 100000 ${Nf} z center ${Dz} 		c_stb[1] c_stb[2] c_stb[3] c_stb[4] c_stb[5] c_stb[6] 		units box file stressBond.zProfile
fix	stressBond all ave/spatial 10 100000 1000000 z center ${Dz} 		c_stb[1] c_stb[2] c_stb[3] c_stb[4] c_stb[5] c_stb[6] 		units box file stressBond.zProfile
fix	stressBond all ave/spatial 10 100000 1000000 z center 1 		c_stb[1] c_stb[2] c_stb[3] c_stb[4] c_stb[5] c_stb[6] 		units box file stressBond.zProfile

compute		sta all stress/atom angle
fix	stressAngle all ave/spatial ${Ne} ${Nr} ${Nf} z center ${Dz} 		c_sta[1] c_sta[2] c_sta[3] c_sta[4] c_sta[5] c_sta[6] 		units box file stressAngle.zProfile
fix	stressAngle all ave/spatial 10 ${Nr} ${Nf} z center ${Dz} 		c_sta[1] c_sta[2] c_sta[3] c_sta[4] c_sta[5] c_sta[6] 		units box file stressAngle.zProfile
fix	stressAngle all ave/spatial 10 100000 ${Nf} z center ${Dz} 		c_sta[1] c_sta[2] c_sta[3] c_sta[4] c_sta[5] c_sta[6] 		units box file stressAngle.zProfile
fix	stressAngle all ave/spatial 10 100000 1000000 z center ${Dz} 		c_sta[1] c_sta[2] c_sta[3] c_sta[4] c_sta[5] c_sta[6] 		units box file stressAngle.zProfile
fix	stressAngle all ave/spatial 10 100000 1000000 z center 1 		c_sta[1] c_sta[2] c_sta[3] c_sta[4] c_sta[5] c_sta[6] 		units box file stressAngle.zProfile

compute		stv all stress/atom virial # check this is redundant
fix	stressVir all ave/spatial ${Ne} ${Nr} ${Nf} z center ${Dz} 		c_stv[1] c_stv[2] c_stv[3] c_stv[4] c_stv[5] c_stv[6] 		units box file stressVir.zProfile
fix	stressVir all ave/spatial 10 ${Nr} ${Nf} z center ${Dz} 		c_stv[1] c_stv[2] c_stv[3] c_stv[4] c_stv[5] c_stv[6] 		units box file stressVir.zProfile
fix	stressVir all ave/spatial 10 100000 ${Nf} z center ${Dz} 		c_stv[1] c_stv[2] c_stv[3] c_stv[4] c_stv[5] c_stv[6] 		units box file stressVir.zProfile
fix	stressVir all ave/spatial 10 100000 1000000 z center ${Dz} 		c_stv[1] c_stv[2] c_stv[3] c_stv[4] c_stv[5] c_stv[6] 		units box file stressVir.zProfile
fix	stressVir all ave/spatial 10 100000 1000000 z center 1 		c_stv[1] c_stv[2] c_stv[3] c_stv[4] c_stv[5] c_stv[6] 		units box file stressVir.zProfile

compute		chgHead head property/atom q
fix 	qDensHead head ave/spatial ${Ne} ${Nr} ${Nf} z center ${Dz} 		c_chgHead units box file qDensHead.zProfile
fix 	qDensHead head ave/spatial 10 ${Nr} ${Nf} z center ${Dz} 		c_chgHead units box file qDensHead.zProfile
fix 	qDensHead head ave/spatial 10 100000 ${Nf} z center ${Dz} 		c_chgHead units box file qDensHead.zProfile
fix 	qDensHead head ave/spatial 10 100000 1000000 z center ${Dz} 		c_chgHead units box file qDensHead.zProfile
fix 	qDensHead head ave/spatial 10 100000 1000000 z center 1 		c_chgHead units box file qDensHead.zProfile

compute		dipGly gly property/atom muz
fix 	muzGly gly ave/spatial ${Ne} ${Nr} ${Nf} z center ${Dz} 		c_dipGly units box file muzGly.zProfile
fix 	muzGly gly ave/spatial 10 ${Nr} ${Nf} z center ${Dz} 		c_dipGly units box file muzGly.zProfile
fix 	muzGly gly ave/spatial 10 100000 ${Nf} z center ${Dz} 		c_dipGly units box file muzGly.zProfile
fix 	muzGly gly ave/spatial 10 100000 1000000 z center ${Dz} 		c_dipGly units box file muzGly.zProfile
fix 	muzGly gly ave/spatial 10 100000 1000000 z center 1 		c_dipGly units box file muzGly.zProfile

compute		dipEst est property/atom muz
fix 	muzEst est ave/spatial ${Ne} ${Nr} ${Nf} z center ${Dz} 		c_dipEst units box file muzEst.zProfile
fix 	muzEst est ave/spatial 10 ${Nr} ${Nf} z center ${Dz} 		c_dipEst units box file muzEst.zProfile
fix 	muzEst est ave/spatial 10 100000 ${Nf} z center ${Dz} 		c_dipEst units box file muzEst.zProfile
fix 	muzEst est ave/spatial 10 100000 1000000 z center ${Dz} 		c_dipEst units box file muzEst.zProfile
fix 	muzEst est ave/spatial 10 100000 1000000 z center 1 		c_dipEst units box file muzEst.zProfile

compute		dipWat wat property/atom muz
fix 	muzWat wat ave/spatial ${Ne} ${Nr} ${Nf} z center ${Dz} 		c_dipWat units box file muzWat.zProfile
fix 	muzWat wat ave/spatial 10 ${Nr} ${Nf} z center ${Dz} 		c_dipWat units box file muzWat.zProfile
fix 	muzWat wat ave/spatial 10 100000 ${Nf} z center ${Dz} 		c_dipWat units box file muzWat.zProfile
fix 	muzWat wat ave/spatial 10 100000 1000000 z center ${Dz} 		c_dipWat units box file muzWat.zProfile
fix 	muzWat wat ave/spatial 10 100000 1000000 z center 1 		c_dipWat units box file muzWat.zProfile

compute		msd gly msd com yes
fix 		msd gly ave/time 1 1 ${Ne} c_msd[4] file gly.msd
fix 		msd gly ave/time 1 1 10 c_msd[4] file gly.msd

restart		${Nprd} restart
restart		1000000 restart
run		${Nprd}
run		1000000
Memory usage per processor = 8.89395 Mbytes
Step Press P Temp tempTot tempRot lipArea lipVol 
       0     72.39264            0    305.24948            0            0            0            0 
  100000    8.2932274    1.0742236     302.0249    303.00106    303.10337    67.622477    1292.3633 
  200000   -12.376595    1.0334564    301.27776    302.89135    303.03216    68.338982    1290.8315 
  300000    45.181057    1.0320607    306.15717      302.938    303.02404    67.951075    1291.4707 
  400000   -23.348629    1.1486065    309.63229    302.92392    303.16454    68.021806    1292.2214 
  500000   -70.734442    1.3123001    301.06514    302.94207      303.192    68.865889    1291.9892 
  600000   -52.361162    1.1191239    303.66666    302.98223     303.1031    69.377699    1292.9392 
  700000    102.09755    1.0353245    303.59893    303.02825     303.2738     68.86289     1292.259 
  800000    15.839093   0.69860289    304.18922    303.01532    303.19678     68.29987    1290.1854 
  900000   -51.455195    1.0904667    301.38287    303.03258    303.20967    68.693697     1291.061 
 1000000   -25.995475    1.4115927     300.4252    302.93371    303.15711    68.280004    1289.5181 
Loop time of 22296.3 on 4 procs (4 MPI x 1 OpenMP) for 1000000 steps with 6016 atoms

Pair  time (%) = 15858.9 (71.128)
Bond  time (%) = 124.249 (0.557261)
Neigh time (%) = 1402.29 (6.28931)
Comm  time (%) = 3900.02 (17.4918)
Outpt time (%) = 0.172331 (0.000772911)
Other time (%) = 1010.67 (4.53289)

Nlocal:    1504 ave 1527 max 1482 min
Histogram: 1 0 1 0 0 0 1 0 0 1
Nghost:    5392.5 ave 5418 max 5367 min
Histogram: 2 0 0 0 0 0 0 0 0 2
Neighs:    165888 ave 194960 max 135790 min
Histogram: 1 1 0 0 0 0 0 0 1 1

Total # of neighbors = 663552
Ave neighs/atom = 110.298
Ave special neighs/atom = 0.595745
Neighbor list builds = 203246
Dangerous builds = 0


