LAMMPS (25 Sep 2011)
units		real
atom_style	hybrid angle dipole sphere 
read_data 	data.512dope10890wat
  2 = max bonds/atom
  2 = max angles/atom
  orthogonal box = (-49.25 -49.25 -49.25) to (49.25 49.25 49.25)
  2 by 2 by 2 processor grid
  18570 atoms
  7168 bonds
  8192 angles
  3 = max # of 1-2 neighbors
  3 = max # of 1-3 neighbors
  6 = max # of 1-4 neighbors
  8 = max # of special neighbors
include 	forcefield.dope
pair_style dipole/sf 12
bond_style harmonic 
angle_style hybrid cosine/squared dipole

#    type  mass [grams/mol]
mass    1   40.000 # water
mass    2   42.000 # amine
mass    3   90.000 # phosphate
mass    4   62.000 # glycerol
mass    5   62.000 # ester
mass    6   42.000 # tail

# LJ coeffs: iType jType epsilon_ij [kcal/mol] sigma_ij [angstrom]
pair_coeff    1    1	  0.466  3.000 # water-water
pair_coeff    1    2	  0.671  3.750 # water-amine
pair_coeff    1    3	  1.054  4.100 # water-phosphate
pair_coeff    1    4	  0.574  3.800 # water-glycerol
pair_coeff    1    5	  0.765  3.800 # water-ester
pair_coeff    1    6	  0.447  3.750 # water-tail
pair_coeff    2    2	  0.837  4.500 # amine-amine
pair_coeff    2    3	  2.738  4.850 # amine-phosphate
pair_coeff    2    4	  1.341  4.550 # amine-glycerol
pair_coeff    2    5	  2.236  4.550 # amine-ester
pair_coeff    2    6	  0.837  4.500 # amine-tail
pair_coeff    3    3	  1.434  5.200 # phosphate-phosphate
pair_coeff    3    4	  1.171  4.900 # phosphate-glycerol
pair_coeff    3    5	  1.171  4.900 # phosphate-ester
pair_coeff    3    6	  1.095  4.850 # phosphate-tail
pair_coeff    4    4	  0.956  4.600 # glycerol-glycerol
pair_coeff    4    5	  0.956  4.600 # glycerol-ester
pair_coeff    4    6	  0.894  4.550 # glycerol-tail
pair_coeff    5    5	  0.956  4.600 # ester-ester 
pair_coeff    5    6	  0.894  4.550 # ester-tail
pair_coeff    6    6	  0.837  4.500 # tail-tail

# harmonic bond coeffs:  K [kcal/(mol*angstrom^2)] r0 [angstrom] 
bond_coeff    1   1.506  4.680 # choline--phosphate
bond_coeff    2   1.506  4.410 # phosphate--glycerol
bond_coeff    3   1.506  4.140 # glycerol--ester
bond_coeff    4   1.506  4.095 # ester--tail
bond_coeff    5   1.506  4.050 # tail--tail

# angle coeffs: K [kcal/mol] theta0 [degrees]
angle_coeff 1 cosine/squared 3.5851 115.00 # choline-phosphate-glycerol
angle_coeff 2 cosine/squared 3.5851 160.00 # phosphate-glycerol-ester
angle_coeff 3 cosine/squared 3.5851 180.00 # gly-est-tail, tail-tail-tail (sat)
angle_coeff 4 cosine/squared 3.5851 120.00 # tail-tail-tail (unsat)
# dipole angle coeffs:  K [kcal/mol] gamma0 [degrees] 
angle_coeff 5  dipole    1.195  0.000 # glyDipole-phosphate, estDipole-tail


special_bonds	lj/coul 0.0 1.0 1.0 
  3 = max # of 1-2 neighbors
  3 = max # of special neighbors
velocity	all create 0.0 87287 

neighbor	1 bin
neigh_modify	delay 0

group		lipids type 2 3 4 5 6
7680 atoms in group lipids
group		water type 1
10890 atoms in group water

fix		integrate all nve/sphere update dipole
fix 		tempLip lipids langevin 303.15 303.15 100.0 48279 omega yes
fix 		tempWat water langevin 303.15 303.15 100.0 48279 omega yes
fix             removeMomentum all momentum 1 linear 1 1 1

compute		erot all erotate/sphere
thermo_style	custom step etotal pe epair c_erot press temp
thermo		10
dump		trj all custom 100 dump.trj id type mol x y z mux muy muz
dump_modify	trj sort id

timestep	1
run		100
Memory usage per processor = 6.65815 Mbytes
Step TotEng PotEng E_pair erot Press Temp 
       0   -119295.53   -119295.53   -128097.54            0   -141.35575            0 
      10    -116458.3    -119752.6   -128544.27    2963.1899   -119.90176    59.517054 
      20   -114201.91   -120811.06   -129574.78    5623.7622   -271.24479    119.40517 
      30   -112654.24   -122016.34   -130740.56    7883.7614   -476.61689    169.14152 
      40   -111665.03   -123068.23   -131746.56    9753.8486   -649.91565    206.01749 
      50   -111030.11   -123820.52   -132451.61     11268.35   -745.51493    231.07957 
      60    -110549.4   -124254.44   -132842.02    12536.446   -755.94317     247.6038 
      70   -110192.55   -124427.12   -132979.44    13464.163    -707.1957    257.17082 
      80   -109805.17   -124421.47   -132942.23    14191.905   -619.29709    264.06732 
      90   -109444.46   -124311.46   -132807.39    14647.031   -522.02187    268.59664 
     100   -109086.82   -124146.56    -132624.5    15072.749   -429.96668    272.07875 
Loop time of 2.54868 on 8 procs for 100 steps with 18570 atoms

Pair  time (%) = 1.89038 (74.1708)
Bond  time (%) = 0.0176852 (0.693897)
Neigh time (%) = 0.00993112 (0.389657)
Comm  time (%) = 0.4961 (19.465)
Outpt time (%) = 0.050127 (1.96678)
Other time (%) = 0.0844594 (3.31385)

Nlocal:    2321.25 ave 2378 max 2267 min
Histogram: 1 1 1 0 1 1 0 2 0 1
Nghost:    5931.75 ave 6032 max 5806 min
Histogram: 1 0 1 1 1 0 0 2 1 1
Neighs:    208858 ave 219835 max 199700 min
Histogram: 1 1 1 1 0 1 1 1 0 1

Total # of neighbors = 1670865
Ave neighs/atom = 89.9766
Ave special neighs/atom = 0.771998
Neighbor list builds = 1
Dangerous builds = 0

timestep	3
run		100
Memory usage per processor = 6.65815 Mbytes
Step TotEng PotEng E_pair erot Press Temp 
     100   -109086.82   -124146.56    -132624.5    15072.749   -429.96668    272.07875 
     110    -108272.6   -123558.47   -132022.76    15430.877   -211.01273    276.16412 
     120   -107111.76   -122785.36   -131263.44    15759.433    14.737389    283.16916 
     130   -106301.93   -122095.34   -130598.25    15954.542    190.39593    285.33363 
     140   -105476.33   -121558.22   -130107.03    16231.345    315.62873    290.54556 
     150   -105041.26   -121180.24   -129781.78    16283.355    371.25204    291.57711 
     160   -104656.69   -120898.79   -129547.94    16396.376    410.47317    293.44016 
     170   -104231.41   -120647.91   -129341.22    16585.114    461.93006    296.59076 
     180   -104033.82   -120500.67    -129229.6    16679.925    469.36809    297.50046 
     190   -103818.37   -120345.73    -129100.6    16667.099    480.24239    298.59374 
     200   -103630.15    -120266.6   -129037.59    16605.388    484.19017    300.56456 
Loop time of 2.59185 on 8 procs for 100 steps with 18570 atoms

Pair  time (%) = 1.89639 (73.1677)
Bond  time (%) = 0.0172527 (0.665651)
Neigh time (%) = 0.0494829 (1.90918)
Comm  time (%) = 0.493718 (19.0489)
Outpt time (%) = 0.0499292 (1.92639)
Other time (%) = 0.0850706 (3.28224)

Nlocal:    2321.25 ave 2380 max 2267 min
Histogram: 2 0 1 1 0 0 1 2 0 1
Nghost:    5935.25 ave 6007 max 5806 min
Histogram: 1 0 0 2 1 0 0 0 0 4
Neighs:    208882 ave 220515 max 198574 min
Histogram: 1 1 0 2 0 1 1 1 0 1

Total # of neighbors = 1671059
Ave neighs/atom = 89.987
Ave special neighs/atom = 0.771998
Neighbor list builds = 5
Dangerous builds = 0

timestep	15
run		100
Memory usage per processor = 6.65815 Mbytes
Step TotEng PotEng E_pair erot Press Temp 
     200   -103630.15    -120266.6   -129037.59    16605.388    484.19017    300.56456 
     210   -103470.45   -120102.64   -128851.44    16665.365    554.68736    300.48749 
     220   -103053.54   -119806.97   -128572.68     16635.64    546.55983    302.67812 
     230   -102994.52   -119724.68   -128537.67    16832.937    535.29525    302.25755 
     240   -102786.21   -119617.08   -128442.71     16713.11    538.12587    304.07711 
     250   -102562.56   -119536.47   -128408.48    16820.177    535.27392    306.66139 
     260   -102635.38   -119484.97   -128378.62     16728.37    557.21963    304.41527 
     270   -102542.09   -119425.11   -128257.59    16991.814    634.67955    305.01931 
     280    -102651.7   -119401.21   -128174.63    16746.681    606.05535    302.60722 
     290   -102643.49   -119485.81   -128323.34    16756.255     581.7316    304.28405 
     300   -102898.02   -119555.19   -128407.27    16826.793    552.35637    300.93893 
Loop time of 2.90557 on 8 procs for 100 steps with 18570 atoms

Pair  time (%) = 1.9197 (66.0695)
Bond  time (%) = 0.0168378 (0.579501)
Neigh time (%) = 0.271883 (9.35729)
Comm  time (%) = 0.560677 (19.2966)
Outpt time (%) = 0.0499654 (1.71964)
Other time (%) = 0.0865107 (2.97741)

Nlocal:    2321.25 ave 2387 max 2260 min
Histogram: 1 0 1 1 0 3 1 0 0 1
Nghost:    5942.62 ave 6031 max 5835 min
Histogram: 1 1 0 2 0 0 0 1 1 2
Neighs:    208979 ave 221413 max 197961 min
Histogram: 1 0 1 2 0 2 1 0 0 1

Total # of neighbors = 1671829
Ave neighs/atom = 90.0285
Ave special neighs/atom = 0.771998
Neighbor list builds = 27
Dangerous builds = 0

fix		baro all press/berendsen aniso 1 1 500 modulus 22222
run		100
Memory usage per processor = 6.65815 Mbytes
Step TotEng PotEng E_pair erot Press Temp 
     300   -102898.02   -119555.19   -128407.27    16826.793    552.35637    300.93893 
     310   -103221.75   -119877.84   -128567.24    16637.346    323.70932    300.91932 
     320   -102799.05   -119571.25   -128293.91    16733.946    215.90196    303.01711 
     330    -102582.9   -119335.01   -128001.94    16648.305    176.52173    302.65417 
     340   -102451.43    -119088.7    -127730.7     16853.32    208.77579    300.57949 
     350   -102234.22   -118954.85   -127548.02    16754.586    109.21045    302.08544 
     360   -102060.01   -118924.55   -127558.04    16806.242    83.056384    304.68534 
     370   -101912.47   -118696.44   -127247.58    16607.086    69.802003    303.22964 
     380   -102177.64   -118803.31   -127309.92    16845.283    55.454009    300.36987 
     390   -101967.74   -118857.57   -127363.84     16909.69    36.566797    305.14234 
     400   -101666.25   -118517.09   -126966.29    16674.729    96.025712    304.43798 
Loop time of 2.91962 on 8 procs for 100 steps with 18570 atoms

Pair  time (%) = 1.91145 (65.4691)
Bond  time (%) = 0.019816 (0.678717)
Neigh time (%) = 0.290868 (9.96252)
Comm  time (%) = 0.552215 (18.9139)
Outpt time (%) = 0.0500013 (1.7126)
Other time (%) = 0.0952717 (3.26315)

Nlocal:    2321.25 ave 2379 max 2275 min
Histogram: 2 0 0 2 1 0 1 1 0 1
Nghost:    5887.5 ave 5968 max 5787 min
Histogram: 1 0 2 0 1 0 0 1 1 2
Neighs:    204750 ave 216633 max 195419 min
Histogram: 1 1 1 1 1 1 0 1 0 1

Total # of neighbors = 1638002
Ave neighs/atom = 88.2069
Ave special neighs/atom = 0.771998
Neighbor list builds = 29
Dangerous builds = 0
